[TITLE]
EXNET water distribution network 2004
Negative pressures result when run under DDA. Change Demand Model to PDA to
remove these.

[JUNCTIONS]
;;ID                             	Elev        	Demand      	Pattern                        
 1107                           	57.1000     
 677                            	9.0000      
 1438                           	2.0000      
 1486                           	2.0000      
 1623                           	2.0000      
 1564                           	2.0000      
 1626                           	2.0000      
 1497                           	2.0000      
 1994                           	5.0000      
 1566                           	15.0000     
 1877                           	8.0000      
 1909                           	1.7000      
 102                            	18.0000     
 1837                           	2.0000      
 1961                           	11.0000     
 2038                           	8.0000      
 409                            	3.0000      
 1880                           	3.0000      
 1239                           	32.0000     
 1314                           	3.0000      
 293                            	23.0000     
 1082                           	23.0000     
 2044                           	9.0000      
 1150                           	33.0000     
 743                            	16.0000     
 1595                           	7.0000      
 2008                           	8.0000      
 1472                           	8.0000      
 1998                           	3.0000      
 638                            	37.0000     
 522                            	28.0000     
 1254                           	2.0000      
 1873                           	2.0000      
 1170                           	34.0000     
 690                            	17.0000     
 486                            	14.0000     
 2031                           	11.0000     
 1594                           	6.0000      
 156                            	25.0000     
 777                            	10.0000     
 665                            	9.0000      
 1310                           	7.0000      
 619                            	16.0000     
 378                            	6.0000      
 1815                           	2.0000      
 100                            	2.0000      
 1450                           	13.0000     
 1370                           	9.0000      
 528                            	14.0000     
 255                            	19.0000     
 1711                           	12.0000     
 1454                           	7.0000      
 1259                           	9.0000      
 1871                           	21.0000     
 1846                           	3.0000      
 2000                           	11.0000     
 1132                           	8.0000      
 1745                           	5.0000      
 1945                           	7.0000      
 1952                           	22.0000     
 2045                           	9.0000      
 2032                           	6.0000      
 1735                           	6.0000      
 1437                           	9.0000      
 466                            	25.0000     
 1142                           	30.0000     
 1389                           	9.0000      
 742                            	4.0000      
 1148                           	40.0000     
 110                            	14.0000     
 1384                           	4.0000      
 936                            	29.0000     
 1582                           	10.0000     
 1515                           	6.0000      
 570                            	21.0000     
 138                            	12.0000     
 1865                           	7.0000      
 437                            	14.0000     
 1853                           	6.0000      
 2033                           	6.0000      
 1465                           	8.0000      
 1869                           	6.0000      
 815                            	24.0000     
 1630                           	7.0000      
 1820                           	25.0000     
 1599                           	18.0000     
 1440                           	23.0000     
 2018                           	8.0000      
 1801                           	2.0000      
 1836                           	8.0000      
 1844                           	8.0000      
 8                              	12.0000     
 651                            	11.0000     
 851                            	12.0000     
 753                            	16.0000     
 2028                           	11.0000     
 1965                           	15.0000     
 1895                           	20.0000     
 731                            	35.0000     
 1531                           	15.0000     
 1224                           	32.0000     
 2030                           	10.0000     
 2004                           	9.0000      
 2009                           	6.0000      
 635                            	16.0000     
 410                            	17.0000     
 1712                           	11.0000     
 1369                           	6.0000      
 1935                           	19.0000     
 652                            	17.0000     
 1398                           	19.0000     
 1423                           	13.0000     
 714                            	9.0000      
 1854                           	12.0000     
 1872                           	25.0000     
 694                            	18.0000     
 710                            	8.0000      
 979                            	32.0000     
 322                            	43.0000     
 1348                           	6.0000      
 959                            	27.0000     
 1262                           	9.0000      
 1825                           	7.0000      
 53                             	17.0000     
 1891                           	17.0000     
 1435                           	8.0000      
 744                            	34.0000     
 1749                           	9.0000      
 678                            	16.0000     
 1418                           	7.0000      
 1316                           	25.0000     
 121                            	6.0000      
 2010                           	9.0000      
 1780                           	8.0000      
 61                             	13.0000     
 756                            	16.0000     
 333                            	6.0000      
 1439                           	8.0000      
 1823                           	13.0000     
 706                            	3.0000      
 11                             	24.0000     
 236                            	18.0000     
 405                            	22.0000     
 1424                           	16.0000     
 365                            	7.0000      
 304                            	16.0000     
 454                            	5.0000      
 1131                           	8.0000      
 2011                           	9.0000      
 87                             	14.0000     
 1403                           	2.0000      
 1876                           	14.0000     
 1284                           	2.0000      
 1011                           	27.0000     
 967                            	32.0000     
 1354                           	6.0000      
 77                             	25.0000     
 923                            	32.0000     
 882                            	20.0000     
 92                             	17.0000     
 1308                           	7.0000      
 609                            	19.0000     
 976                            	27.0000     
 418                            	3.0000      
 880                            	16.0000     
 1636                           	13.0000     
 1920                           	7.0000      
 1458                           	9.0000      
 1252                           	6.0000      
 893                            	25.0000     
 1493                           	16.0000     
 794                            	4.0000      
 1625                           	18.0000     
 1925                           	31.0000     
 579                            	21.0000     
 1491                           	13.0000     
 461                            	9.0000      
 326                            	6.0000      
 553                            	26.0000     
 10                             	18.0000     
 1736                           	2.0000      
 776                            	14.0000     
 1642                           	18.0000     
 1273                           	7.0000      
 1221                           	6.0000      
 282                            	9.0000      
 191                            	8.0000      
 1548                           	11.0000     
 1269                           	14.0000     
 1289                           	9.0000      
 837                            	16.0000     
 1459                           	2.0000      
 65                             	17.0000     
 1731                           	7.0000      
 605                            	3.0000      
 261                            	19.0000     
 1499                           	27.0000     
 539                            	6.0000      
 1950                           	36.0000     
 359                            	17.0000     
 1234                           	33.0000     
 305                            	23.0000     
 737                            	16.0000     
 383                            	7.0000      
 1258                           	8.0000      
 581                            	22.0000     
 302                            	8.0000      
 1817                           	15.0000     
 1078                           	28.0000     
 786                            	30.0000     
 1719                           	7.0000      
 555                            	3.0000      
 1449                           	16.0000     
 1129                           	28.0000     
 1121                           	28.0000     
 928                            	37.0000     
 1349                           	2.0000      
 1329                           	27.0000     
 1177                           	33.0000     
 1960                           	14.0000     
 656                            	8.0000      
 655                            	4.0000      
 1479                           	27.0000     
 292                            	23.0000     
 1401                           	7.0000      
 535                            	19.0000     
 842                            	16.0000     
 1306                           	27.0000     
 1160                           	34.0000     
 623                            	14.0000     
 1357                           	6.0000      
 704                            	16.0000     
 1038                           	31.0000     
 1436                           	6.0000      
 641                            	9.0000      
 1406                           	7.0000      
 1772                           	6.0000      
 1956                           	18.0000     
 1663                           	23.0000     
 336                            	22.0000     
 501                            	17.0000     
 747                            	35.0000     
 617                            	9.0000      
 1514                           	12.0000     
 671                            	3.0000      
 208                            	31.0000     
 1765                           	11.0000     
 1181                           	35.0000     
 187                            	8.0000      
 1615                           	13.0000     
 136                            	17.0000     
 1487                           	25.0000     
 868                            	27.0000     
 406                            	23.0000     
 435                            	3.0000      
 1788                           	7.0000      
 925                            	34.0000     
 1094                           	32.0000     
 1141                           	36.0000     
 1236                           	41.0000     
 972                            	32.0000     
 1412                           	5.0000      
 211                            	33.0000     
 682                            	14.0000     
 1990                           	6.0000      
 1845                           	13.0000     
 1261                           	11.0000     
 78                             	24.0000     
 295                            	9.0000      
 660                            	16.0000     
 1495                           	11.0000     
 1812                           	15.0000     
 1818                           	19.0000     
 1632                           	11.0000     
 1926                           	39.0000     
 578                            	13.0000     
 1260                           	11.0000     
 433                            	16.0000     
 1878                           	3.0000      
 310                            	2.0000      
 548                            	6.0000      
 666                            	16.0000     
 1300                           	30.0000     
 308                            	32.0000     
 1627                           	12.0000     
 857                            	27.0000     
 436                            	16.0000     
 377                            	6.0000      
 1464                           	8.0000      
 334                            	6.0000      
 47                             	13.0000     
 1467                           	8.0000      
 285                            	9.0000      
 1948                           	11.0000     
 445                            	7.0000      
 1957                           	14.0000     
 93                             	10.0000     
 1367                           	16.0000     
 2037                           	26.0000     
 1834                           	8.0000      
 1814                           	7.0000      
 1339                           	26.0000     
 1165                           	32.0000     
 1058                           	28.0000     
 477                            	34.0000     
 1140                           	6.0000      
 1979                           	15.0000     
 1902                           	6.0000      
 128                            	18.0000     
 371                            	22.0000     
 1408                           	2.0000      
 1426                           	8.0000      
 843                            	4.0000      
 631                            	28.0000     
 275                            	7.0000      
 1211                           	33.0000     
 2013                           	9.0000      
 1046                           	34.0000     
 68                             	15.0000     
 381                            	17.0000     
 1263                           	19.0000     
 1109                           	34.0000     
 911                            	22.0000     
 252                            	16.0000     
 1695                           	13.0000     
 1151                           	36.0000     
 1003                           	7.0000      
 1560                           	13.0000     
 490                            	3.0000      
 1402                           	7.0000      
 819                            	30.0000     
 1770                           	13.0000     
 1617                           	13.0000     
 1634                           	12.0000     
 1739                           	3.0000      
 1394                           	14.0000     
 367                            	16.0000     
 901                            	22.0000     
 1605                           	10.0000     
 169                            	12.0000     
 1829                           	6.0000      
 1087                           	3.0000      
 1489                           	12.0000     
 829                            	23.0000     
 625                            	10.0000     
 1337                           	7.0000      
 1973                           	4.0000      
 719                            	9.0000      
 500                            	30.0000     
 1572                           	9.0000      
 1413                           	8.0000      
 708                            	16.0000     
 1547                           	16.0000     
 662                            	16.0000     
 746                            	16.0000     
 951                            	27.0000     
 811                            	16.0000     
 12                             	12.0000     
 1200                           	3.0000      
 1764                           	12.0000     
 1125                           	34.0000     
 1927                           	21.0000     
 1077                           	33.0000     
 1279                           	6.0000      
 1277                           	21.0000     
 1351                           	2.0000      
 1430                           	9.0000      
 278                            	27.0000     
 1164                           	6.0000      
 62                             	25.0000     
 122                            	16.0000     
 1291                           	14.0000     
 258                            	19.0000     
 1342                           	13.0000     
 1692                           	19.0000     
 2021                           	6.0000      
 2020                           	26.0000     
 219                            	19.0000     
 38                             	13.0000     
 1969                           	16.0000     
 767                            	34.0000     
 1307                           	28.0000     
 299                            	21.0000     
 1143                           	30.0000     
 1455                           	2.0000      
 1887                           	26.0000     
 732                            	16.0000     
 1924                           	8.0000      
 759                            	32.0000     
 178                            	7.0000      
 129                            	18.0000     
 1005                           	31.0000     
 1755                           	13.0000     
 645                            	7.0000      
 1374                           	16.0000     
 982                            	4.0000      
 184                            	7.0000      
 1029                           	31.0000     
 1842                           	13.0000     
 1828                           	13.0000     
 1618                           	11.0000     
 196                            	13.0000     
 1222                           	8.0000      
 327                            	18.0000     
 376                            	3.0000      
 1751                           	16.0000     
 640                            	27.0000     
 216                            	16.0000     
 1473                           	27.0000     
 802                            	24.0000     
 1069                           	33.0000     
 1740                           	15.0000     
 595                            	28.0000     
 1708                           	11.0000     
 613                            	38.0000     
 785                            	23.0000     
 1194                           	33.0000     
 155                            	33.0000     
 1699                           	11.0000     
 670                            	28.0000     
 36                             	12.0000     
 1443                           	9.0000      
 1100                           	34.0000     
 1068                           	4.0000      
 1525                           	11.0000     
 845                            	6.0000      
 1496                           	16.0000     
 1364                           	14.0000     
 669                            	9.0000      
 188                            	10.0000     
 915                            	27.0000     
 1072                           	34.0000     
 425                            	8.0000      
 622                            	19.0000     
 457                            	8.0000      
 634                            	4.0000      
 1425                           	9.0000      
 627                            	11.0000     
 150                            	18.0000     
 431                            	23.0000     
 70                             	12.0000     
 35                             	7.0000      
 1800                           	13.0000     
 606                            	22.0000     
 1980                           	8.0000      
 588                            	28.0000     
 1537                           	3.0000      
 1393                           	21.0000     
 1483                           	6.0000      
 1                              	9.0000      
 1641                           	12.0000     
 760                            	16.0000     
 1355                           	13.0000     
 644                            	16.0000     
 1862                           	21.0000     
 683                            	12.0000     
 1910                           	32.0000     
 204                            	13.0000     
 430                            	8.0000      
 267                            	16.0000     
 1311                           	14.0000     
 1122                           	32.0000     
 512                            	9.0000      
 833                            	4.0000      
 681                            	16.0000     
 1385                           	8.0000      
 117                            	7.0000      
 1371                           	8.0000      
 1516                           	6.0000      
 698                            	14.0000     
 434                            	3.0000      
 449                            	7.0000      
 1587                           	13.0000     
 585                            	28.0000     
 1580                           	12.0000     
 1533                           	7.0000      
 51                             	13.0000     
 515                            	39.0000     
 858                            	27.0000     
 385                            	16.0000     
 667                            	5.0000      
 1803                           	11.0000     
 498                            	28.0000     
 1917                           	23.0000     
 142                            	23.0000     
 949                            	25.0000     
 1388                           	13.0000     
 1593                           	6.0000      
 1485                           	2.0000      
 1356                           	21.0000     
 1885                           	25.0000     
 1771                           	2.0000      
 1295                           	23.0000     
 1898                           	19.0000     
 243                            	13.0000     
 99                             	7.0000      
 1243                           	28.0000     
 1383                           	9.0000      
 344                            	6.0000      
 321                            	2.0000      
 1225                           	34.0000     
 54                             	9.0000      
 245                            	7.0000      
 1171                           	30.0000     
 1235                           	6.0000      
 213                            	16.0000     
 472                            	26.0000     
 1727                           	17.0000     
 1864                           	21.0000     
 1962                           	9.0000      
 1863                           	21.0000     
 1964                           	9.0000      
 1860                           	21.0000     
 1650                           	13.0000     
 514                            	17.0000     
 366                            	6.0000      
 1220                           	7.0000      
 1508                           	16.0000     
 597                            	8.0000      
 940                            	31.0000     
 793                            	26.0000     
 1461                           	13.0000     
 483                            	19.0000     
 137                            	12.0000     
 1353                           	6.0000      
 1184                           	8.0000      
 1193                           	7.0000      
 1312                           	28.0000     
 140                            	24.0000     
 1944                           	6.0000      
 1802                           	11.0000     
 1330                           	7.0000      
 234                            	25.0000     
 56                             	13.0000     
 1710                           	11.0000     
 1375                           	14.0000     
 1360                           	25.0000     
 75                             	13.0000     
 1674                           	15.0000     
 419                            	2.0000      
 847                            	32.0000     
 1698                           	11.0000     
 1700                           	11.0000     
 840                            	21.0000     
 810                            	32.0000     
 877                            	37.0000     
 1429                           	28.0000     
 1758                           	15.0000     
 713                            	22.0000     
 251                            	18.0000     
 1624                           	13.0000     
 1601                           	13.0000     
 411                            	3.0000      
 88                             	7.0000      
 1480                           	7.0000      
 44                             	10.0000     
 194                            	7.0000      
 335                            	6.0000      
 1191                           	33.0000     
 1214                           	8.0000      
 696                            	8.0000      
 1006                           	34.0000     
 112                            	7.0000      
 1934                           	3.0000      
 1304                           	15.0000     
 1478                           	12.0000     
 96                             	24.0000     
 1721                           	14.0000     
 1153                           	6.0000      
 180                            	8.0000      
 201                            	16.0000     
 388                            	8.0000      
 1055                           	35.0000     
 1638                           	9.0000      
 1199                           	6.0000      
 485                            	28.0000     
 648                            	11.0000     
 896                            	4.0000      
 1936                           	1.0000      
 1103                           	6.0000      
 1970                           	4.0000      
 463                            	14.0000     
 233                            	12.0000     
 2014                           	8.0000      
 1611                           	12.0000     
 712                            	16.0000     
 1940                           	19.0000     
 1386                           	25.0000     
 499                            	28.0000     
 1677                           	12.0000     
 1004                           	31.0000     
 1716                           	14.0000     
 230                            	7.0000      
 740                            	33.0000     
 1063                           	31.0000     
 1428                           	13.0000     
 1204                           	8.0000      
 28                             	8.0000      
 1616                           	12.0000     
 441                            	7.0000      
 1975                           	2.0000      
 1743                           	21.0000     
 557                            	17.0000     
 1365                           	14.0000     
 1835                           	21.0000     
 836                            	6.0000      
 397                            	10.0000     
 1756                           	4.0000      
 491                            	3.0000      
 1773                           	30.0000     
 1521                           	7.0000      
 1750                           	7.0000      
 1167                           	32.0000     
 1124                           	6.0000      
 1989                           	21.0000     
 800                            	6.0000      
 1831                           	14.0000     
 1985                           	15.0000     
 1833                           	26.7000     
 1123                           	27.0000     
 1939                           	9.0000      
 179                            	6.0000      
 1417                           	9.0000      
 247                            	16.0000     
 177                            	10.0000     
 1686                           	2.0000      
 941                            	4.0000      
 881                            	16.0000     
 131                            	17.0000     
 1886                           	13.0000     
 2017                           	4.0000      
 1672                           	9.0000      
 206                            	19.0000     
 910                            	22.0000     
 772                            	4.0000      
 503                            	7.0000      
 109                            	17.0000     
 63                             	10.0000     
 908                            	21.0000     
 879                            	24.0000     
 134                            	17.0000     
 1702                           	14.0000     
 1407                           	7.0000      
 1653                           	7.0000      
 2025                           	21.0000     
 181                            	27.0000     
 920                            	22.0000     
 329                            	23.0000     
 341                            	6.0000      
 1466                           	8.0000      
 1245                           	13.0000     
 1664                           	8.0000      
 459                            	8.0000      
 59                             	10.0000     
 1606                           	6.0000      
 917                            	21.0000     
 924                            	5.0000      
 1482                           	7.0000      
 1474                           	5.0000      
 256                            	6.0000      
 1822                           	21.0000     
 444                            	13.0000     
 1718                           	28.0000     
 487                            	19.0000     
 1021                           	4.0000      
 654                            	22.0000     
 185                            	19.0000     
 5399                           	8.0000      
 1819                           	8.0000      
 1794                           	2.0000      
 1332                           	6.0000      
 736                            	8.0000      
 943                            	24.0000     
 1527                           	9.0000      
 1415                           	8.0000      
 460                            	3.0000      
 1352                           	26.0000     
 2034                           	6.0000      
 543                            	7.0000      
 1559                           	16.0000     
 83                             	12.0000     
 973                            	27.0000     
 1916                           	16.0000     
 154                            	24.0000     
 1188                           	30.0000     
 1113                           	32.0000     
 494                            	22.0000     
 1392                           	27.0000     
 1237                           	32.0000     
 709                            	4.0000      
 1589                           	9.0000      
 224                            	6.0000      
 1104                           	23.0000     
 263                            	16.0000     
 1691                           	13.0000     
 1717                           	15.0000     
 1509                           	7.0000      
 735                            	33.0000     
 1395                           	27.0000     
 1643                           	23.0000     
 1507                           	16.0000     
 1933                           	17.0000     
 1518                           	7.0000      
 104                            	23.0000     
 1274                           	3.0000      
 225                            	12.0000     
 1707                           	13.0000     
 523                            	28.0000     
 1197                           	8.0000      
 1007                           	34.0000     
 2039                           	13.0000     
 1629                           	9.0000      
 467                            	5.0000      
 504                            	11.5000     
 205                            	24.0000     
 1275                           	3.0000      
 1159                           	34.0000     
 574                            	28.0000     
 97                             	6.0000      
 1334                           	7.0000      
 508                            	13.0000     
 1073                           	34.0000     
 1411                           	7.0000      
 495                            	21.0000     
 291                            	21.0000     
 590                            	2.0000      
 1753                           	12.0000     
 464                            	7.0000      
 1336                           	28.0000     
 227                            	6.0000      
 1488                           	13.0000     
 1504                           	9.0000      
 1399                           	21.0000     
 5                              	17.5000     
 1586                           	19.0000     
 1293                           	9.0000      
 1340                           	2.0000      
 484                            	7.0000      
 600                            	3.0000      
 628                            	14.0000     
 42                             	12.0000     
 814                            	6.0000      
 1115                           	6.0000      
 424                            	7.0000      
 1963                           	23.0000     
 1662                           	13.0000     
 1414                           	14.0000     
 1575                           	19.0000     
 1322                           	21.0000     
 818                            	2.0000      
 25                             	9.0000      
 496                            	36.0000     
 1302                           	21.0000     
 674                            	22.0000     
 1520                           	16.0000     
 1421                           	9.0000      
 1410                           	9.0000      
 158                            	18.0000     
 593                            	14.0000     
 1456                           	15.0000     
 1635                           	12.0000     
 1639                           	12.0000     
 209                            	19.0000     
 1463                           	9.0000      
 954                            	27.0000     
 1335                           	7.0000      
 1420                           	9.0000      
 903                            	31.0000     
 375                            	6.0000      
 1517                           	6.0000      
 1404                           	8.0000      
 217                            	16.0000     
 755                            	16.0000     
 349                            	12.0000     
 1541                           	7.0000      
 212                            	19.0000     
 1179                           	28.0000     
 1720                           	21.0000     
 1723                           	21.0000     
 1315                           	25.0000     
 869                            	4.0000      
 395                            	8.0000      
 160                            	16.0000     
 1345                           	13.0000     
 1579                           	13.0000     
 551                            	3.0000      
 1607                           	12.0000     
 1470                           	15.0000     
 309                            	19.0000     
 513                            	22.0000     
 475                            	8.0000      
 1900                           	25.0000     
 244                            	13.0000     
 944                            	4.0000      
 1633                           	11.0000     
 629                            	12.0000     
 148                            	7.0000      
 1923                           	8.0000      
 1571                           	6.0000      
 1144                           	23.0000     
 345                            	9.0000      
 1018                           	34.0000     
 1086                           	34.0000     
 426                            	9.0000      
 509                            	22.0000     
 701                            	12.0000     
 1195                           	33.0000     
 2003                           	8.0000      
 1139                           	23.0000     
 241                            	18.0000     
 1696                           	8.0000      
 1608                           	8.0000      
 1013                           	4.0000      
 167                            	7.0000      
 290                            	7.0000      
 521                            	3.0000      
 382                            	7.0000      
 1247                           	22.0000     
 373                            	23.0000     
 934                            	18.0000     
 1169                           	8.0000      
 1158                           	33.0000     
 52                             	7.0000      
 1954                           	13.0000     
 103                            	24.0000     
 200                            	16.0000     
 106                            	14.0000     
 1621                           	9.0000      
 1290                           	11.0000     
 679                            	5.0000      
 806                            	26.0000     
 603                            	4.0000      
 1578                           	8.0000      
 1500                           	6.0000      
 1445                           	13.0000     
 1726                           	21.0000     
 17                             	25.0000     
 1442                           	15.0000     
 598                            	8.0000      
 1889                           	7.0000      
 1053                           	31.0000     
 1350                           	9.0000      
 1344                           	7.0000      
 1346                           	7.0000      
 931                            	22.0000     
 401                            	16.0000     
 1492                           	13.0000     
 399                            	16.0000     
 3                              	13.0000     
 950                            	27.0000     
 1912                           	2.0000      
 58                             	15.7000     
 568                            	9.0000      
 552                            	7.0000      
 1596                           	19.0000     
 1008                           	34.0000     
 152                            	27.0000     
 1363                           	14.0000     
 1309                           	7.0000      
 1232                           	33.0000     
 237                            	12.0000     
 392                            	9.0000      
 978                            	31.0000     
 1511                           	13.0000     
 379                            	6.0000      
 1213                           	37.0000     
 1462                           	7.0000      
 716                            	14.0000     
 883                            	12.0000     
 300                            	13.0000     
 1397                           	8.0000      
 1320                           	16.0000     
 1588                           	18.0000     
 1296                           	13.0000     
 446                            	14.0000     
 2043                           	13.0000     
 254                            	23.0000     
 218                            	19.0000     
 1763                           	11.0000     
 561                            	28.0000     
 1281                           	2.0000      
 2042                           	13.0000     
 287                            	26.0000     
 1911                           	6.0000      
 1319                           	2.0000      
 1510                           	9.0000      
 895                            	32.0000     
 1544                           	6.0000      
 932                            	18.0000     
 111                            	10.0000     
 711                            	12.0000     
 162                            	17.0000     
 1303                           	25.0000     
 519                            	13.5000     
 1048                           	33.0000     
 417                            	12.0000     
 1986                           	5.0000      
 221                            	19.0000     
 1064                           	3.0000      
 248                            	16.0000     
 1323                           	15.0000     
 725                            	16.0000     
 423                            	7.0000      
 2024                           	6.0000      
 965                            	32.0000     
 82                             	10.0000     
 824                            	6.0000      
 1321                           	16.0000     
 1577                           	13.0000     
 175                            	17.0000     
 164                            	17.0000     
 647                            	28.0000     
 939                            	29.0000     
 356                            	9.0000      
 296                            	36.0000     
 149                            	25.0000     
 1271                           	18.0000     
 1257                           	18.0000     
 1915                           	43.0000     
 1928                           	34.0000     
 249                            	16.0000     
 1112                           	21.0000     
 105                            	17.0000     
 702                            	12.0000     
 538                            	40.0000     
 1196                           	32.9000     
 273                            	23.0000     
 906                            	6.0000      
 270                            	27.0000     
 1748                           	28.0000     
 107                            	17.0000     
 215                            	16.0000     
 286                            	21.0000     
 1209                           	7.0000      
 558                            	17.0000     
 1390                           	13.0000     
 554                            	27.0000     
 492                            	3.0000      
 1859                           	11.0000     
 927                            	27.0000     
 1433                           	25.0000     
 871                            	16.0000     
 1905                           	12.0000     
 873                            	6.0000      
 257                            	23.0000     
 363                            	21.0000     
 1907                           	21.0000     
 1892                           	18.0000     
 1847                           	11.0000     
 1343                           	14.0000     
 1157                           	28.0000     
 751                            	31.0000     
 1687                           	15.0000     
 1154                           	31.0000     
 1694                           	12.0000     
 1535                           	6.0000      
 724                            	16.0000     
 408                            	7.0000      
 159                            	18.0000     
 1249                           	27.0000     
 462                            	13.0000     
 718                            	12.0000     
 1173                           	31.0000     
 992                            	35.0000     
 429                            	8.0000      
 1558                           	16.0000     
 1583                           	6.0000      
 1832                           	13.0000     
 602                            	17.0000     
 387                            	8.0000      
 781                            	16.0000     
 1523                           	7.0000      
 1786                           	14.0000     
 862                            	21.0000     
 240                            	27.0000     
 1172                           	8.0000      
 707                            	16.0000     
 912                            	25.0000     
 1804                           	27.0000     
 1734                           	16.5000     
 534                            	7.0000      
 530                            	7.0000      
 101                            	24.0000     
 1471                           	9.0000      
 1543                           	16.0000     
 1513                           	13.0000     
 608                            	7.0000      
 1475                           	9.0000      
 1565                           	16.0000     
 1921                           	7.0000      
 1538                           	10.0000     
 1116                           	6.0000      
 37                             	7.0000      
 1741                           	21.0000     
 1744                           	21.0000     
 81                             	24.0000     
 1501                           	13.0000     
 792                            	36.0000     
 577                            	7.0000      
 1532                           	23.0000     
 1333                           	25.0000     
 1227                           	33.0000     
 95                             	24.0000     
 1747                           	2.0000      
 1754                           	2.0000      
 450                            	13.0000     
 1490                           	6.0000      
 1972                           	14.0000     
 348                            	13.0000     
 422                            	36.0000     
 2047                           	4.0000      
 1746                           	8.0000      
 250                            	33.0000     
 391                            	12.0000     
 1996                           	21.0000     
 197                            	23.0000     
 210                            	23.0000     
 1701                           	11.0000     
 1715                           	11.0000     
 1598                           	11.0000     
 1590                           	11.0000     
 1913                           	23.0000     
 559                            	17.0000     
 657                            	22.0000     
 1703                           	25.0000     
 1223                           	34.7000     
 1637                           	18.0000     
 855                            	12.0000     
 1706                           	25.0000     
 1022                           	34.0000     
 517                            	33.0000     
 1775                           	11.0000     
 1918                           	16.0000     
 1545                           	16.0000     
 1875                           	3.0000      
 1861                           	3.0000      
 820                            	16.0000     
 1931                           	13.0000     
 721                            	16.0000     
 2023                           	3.0000      
 144                            	17.0000     
 685                            	14.0000     
 1897                           	27.0000     
 1217                           	3.0000      
 1280                           	25.0000     
 571                            	9.0000      
 1705                           	11.0000     
 339                            	23.0000     
 1830                           	21.0000     
 1255                           	14.0000     
 1671                           	19.0000     
 546                            	3.0000      
 319                            	13.0000     
 516                            	9.0000      
 1760                           	13.0000     
 1592                           	6.0000      
 1244                           	14.0000     
 26                             	15.0000     
 1857                           	7.0000      
 297                            	19.0000     
 320                            	6.0000      
 1387                           	13.0000     
 456                            	8.0000      
 404                            	8.0000      
 173                            	10.0000     
 1709                           	12.0000     
 1888                           	6.0000      
 563                            	34.1000     
 1452                           	13.0000     
 427                            	9.0000      
 229                            	23.0000     
 1347                           	27.0000     
 1848                           	11.0000     
 1838                           	11.0000     
 892                            	4.0000      
 76                             	23.0000     
 1841                           	11.0000     
 676                            	22.0000     
 1809                           	8.0000      
 5402                           	8.0000      
 1266                           	13.0000     
 686                            	39.0000     
 1341                           	14.0000     
 1359                           	21.0000     
 1185                           	6.0000      
 1551                           	6.0000      
 474                            	17.0000     
 1133                           	6.0000      
 1850                           	11.0000     
 1552                           	3.0000      
 274                            	21.0000     
 29                             	25.0000     
 636                            	4.0000      
 439                            	16.0000     
 1149                           	23.0000     
 421                            	3.0000      
 1542                           	10.0000     
 34                             	8.0000      
 916                            	2.0000      
 1095                           	34.0000     
 1688                           	13.0000     
 1679                           	13.0000     
 1689                           	13.0000     
 902                            	4.0000      
 582                            	7.0000      
 963                            	31.0000     
 1704                           	14.0000     
 1268                           	8.0000      
 1534                           	7.0000      
 1002                           	27.0000     
 220                            	19.0000     
 684                            	14.0000     
 506                            	11.0000     
 969                            	31.0000     
 125                            	6.0000      
 1120                           	41.0000     
 1093                           	23.0000     
 850                            	21.0000     
 1644                           	18.0000     
 779                            	10.0000     
 1233                           	4.0000      
 828                            	24.0000     
 1301                           	21.0000     
 799                            	16.0000     
 89                             	7.0000      
 331                            	6.0000      
 1283                           	2.0000      
 1762                           	12.0000     
 324                            	16.0000     
 420                            	12.0000     
 1419                           	9.0000      
 1937                           	22.0000     
 573                            	22.0000     
 1427                           	9.0000      
 1240                           	8.0000      
 749                            	8.0000      
 1373                           	15.0000     
 1640                           	23.0000     
 21                             	7.0000      
 393                            	16.0000     
 1811                           	14.0000     
 1930                           	9.0000      
 202                            	19.0000     
 1162                           	3.0000      
 174                            	7.0000      
 176                            	10.0000     
 351                            	34.0000     
 1951                           	4.0000      
 637                            	16.0000     
 650                            	16.0000     
 1292                           	14.0000     
 527                            	19.0000     
 412                            	3.0000      
 1759                           	28.0000     
 807                            	6.0000      
 1971                           	12.0000     
 587                            	33.0000     
 27                             	15.7000     
 123                            	22.0000     
 118                            	23.0000     
 1737                           	21.0000     
 738                            	4.0000      
 730                            	23.0000     
 1448                           	13.0000     
 1799                           	13.0000     
 2015                           	21.0000     
 1874                           	13.0000     
 189                            	8.0000      
 127                            	22.0000     
 119                            	22.0000     
 1821                           	13.0000     
 1446                           	7.0000      
 796                            	6.0000      
 414                            	13.0000     
 1032                           	31.0000     
 279                            	32.0000     
 1278                           	14.0000     
 1810                           	7.0000      
 1757                           	21.0000     
 1546                           	9.0000      
 49                             	16.0000     
 788                            	41.0000     
 1536                           	6.0000      
 1631                           	7.0000      
 918                            	7.0000      
 1242                           	13.0000     
 885                            	27.0000     
 390                            	12.0000     
 562                            	22.0000     
 416                            	14.0000     
 9                              	13.0000     
 277                            	7.0000      
 1553                           	9.0000      
 1778                           	12.0000     
 368                            	21.0000     
 1331                           	13.0000     
 835                            	26.0000     
 1792                           	13.0000     
 1729                           	27.0000     
 1868                           	12.0000     
 317                            	7.0000      
 1135                           	30.0000     
 1852                           	6.0000      
 1867                           	6.0000      
 536                            	39.0000     
 1782                           	12.0000     
 4                              	7.0000      
 1313                           	2.0000      
 1288                           	14.0000     
 438                            	3.0000      
 1230                           	36.0000     
 1724                           	27.0000     
 2041                           	21.0000     
 1067                           	31.0000     
 1379                           	8.0000      
 145                            	17.0000     
 141                            	17.0000     
 1793                           	21.0000     
 1713                           	12.0000     
 1382                           	30.0000     
 537                            	28.0000     
 139                            	10.0000     
 1808                           	7.0000      
 1614                           	19.0000     
 2036                           	3.0000      
 668                            	19.0000     
 1187                           	7.0000      
 863                            	32.0000     
 214                            	19.0000     
 60                             	23.0000     
 1675                           	9.0000      
 1768                           	13.0000     
 1779                           	13.0000     
 1231                           	8.0000      
 1317                           	28.0000     
 1318                           	28.0000     
 1372                           	8.0000      
 790                            	3.0000      
 1840                           	11.0000     
 1270                           	14.0000     
 529                            	26.0000     
 900                            	27.0000     
 80                             	23.0000     
 1099                           	21.0000     
 1166                           	33.0000     
 945                            	8.0000      
 389                            	16.0000     
 827                            	16.0000     
 1849                           	11.0000     
 768                            	32.0000     
 1569                           	10.0000     
 1409                           	13.0000     
 2006                           	8.0000      
 69                             	23.0000     
 783                            	36.0000     
 1238                           	36.0000     
 260                            	32.0000     
 1071                           	26.0000     
 615                            	34.0000     
 268                            	6.0000      
 618                            	6.0000      
 1530                           	7.0000      
 762                            	23.0000     
 1997                           	6.0000      
 306                            	1.7000      
 350                            	21.0000     
 332                            	6.0000      
 1646                           	8.0000      
 289                            	23.0000     
 639                            	32.0000     
 1682                           	9.0000      
 1941                           	19.0000     
 1967                           	10.0000     
 773                            	10.0000     
 1250                           	13.0000     
 235                            	7.0000      
 440                            	22.0000     
 298                            	6.0000      
 170                            	24.0000     
 653                            	27.0000     
 870                            	6.0000      
 1766                           	8.0000      
 624                            	14.0000     
 1366                           	2.0000      
 1597                           	8.0000      
 153                            	7.0000      
 328                            	13.0000     
 1894                           	7.0000      
 1776                           	2.0000      
 239                            	7.0000      
 13                             	16.0000     
 1178                           	23.0000     
 222                            	21.0000     
 1248                           	13.0000     
 1481                           	5.0000      
 705                            	16.0000     
 497                            	28.0000     
 493                            	28.0000     
 1338                           	13.0000     
 894                            	6.0000      
 864                            	6.0000      
 1265                           	21.0000     
 1660                           	18.0000     
 198                            	7.0000      
 518                            	14.0000     
 98                             	7.0000      
 264                            	6.0000      
 386                            	8.0000      
 812                            	16.0000     
 889                            	27.0000     
 567                            	11.0000     
 1968                           	8.0000      
 673                            	16.0000     
 1226                           	32.9000     
 1362                           	8.5000      
 407                            	34.0000     
 132                            	17.0000     
 330                            	23.0000     
 1807                           	12.0000     
 1494                           	6.0000      
 1327                           	2.0000      
 1378                           	8.0000      
 1949                           	16.0000     
 1145                           	34.1000     
 1657                           	7.0000      
 303                            	6.0000      
 1870                           	12.0000     
 1119                           	34.0000     
 1391                           	8.0000      
 147                            	34.0000     
 775                            	16.0000     
 1416                           	19.0000     
 1570                           	10.0000     
 1563                           	10.0000     
 1784                           	8.0000      
 1783                           	8.0000      
 1453                           	7.0000      
 1562                           	16.0000     
 1581                           	7.0000      
 165                            	6.0000      
 646                            	21.0000     
 1673                           	18.0000     
 1806                           	21.0000     
 778                            	6.0000      
 826                            	4.0000      
 822                            	4.0000      
 1984                           	22.0000     
 1805                           	2.0000      
 90                             	25.0000     
 1405                           	13.0000     
 199                            	24.0000     
 1549                           	7.0000      
 1813                           	2.0000      
 114                            	24.0000     
 1210                           	36.0000     
 2029                           	14.0000     
 1977                           	8.0000      
 2040                           	14.0000     
 2035                           	14.0000     
 1728                           	13.0000     
 589                            	26.0000     
 398                            	16.0000     
 675                            	9.0000      
 649                            	14.0000     
 1460                           	9.0000      
 190                            	25.0000     
 195                            	19.0000     
 964                            	24.0000     
 1381                           	8.0000      
 1506                           	6.0000      
 1851                           	11.0000     
 1843                           	11.0000     
 1839                           	11.0000     
 658                            	17.0000     
 757                            	23.0000     
 1264                           	13.0000     
 763                            	30.0000     
 1326                           	2.0000      
 750                            	13.0000     
 1215                           	34.7000     
 1256                           	27.0000     
 621                            	23.0000     
 2016                           	25.0000     
 853                            	21.0000     
 242                            	7.0000      
 1526                           	16.0000     
 168                            	6.0000      
 124                            	2.0000      
 664                            	17.0000     
 157                            	6.0000      
 1651                           	7.0000      
 1014                           	7.0000      
 207                            	7.0000      
 748                            	13.0000     
 1742                           	12.0000     
 396                            	12.0000     
 955                            	24.0000     
 1647                           	7.0000      
 1929                           	12.0000     
 32                             	7.0000      
 1603                           	19.0000     
 1899                           	18.0000     
 413                            	13.0000     
 852                            	4.0000      
 1001                           	7.0000      
 795                            	16.0000     
 1457                           	27.0000     
 1136                           	32.0000     
 699                            	16.0000     
 1228                           	32.0000     
 1947                           	6.0000      
 766                            	31.0000     
 560                            	12.0000     
 1981                           	8.0000      
 269                            	12.0000     
 861                            	4.0000      
 859                            	4.0000      
 1769                           	11.0000     
 415                            	14.0000     
 575                            	28.0000     
 1609                           	19.0000     
 1108                           	34.0000     
 816                            	16.0000     
 476                            	8.0000      
 2046                           	11.0000     
 874                            	4.0000      
 1958                           	3.0000      
 453                            	12.0000     
 20                             	18.0000     
 841                            	21.0000     
 448                            	13.0000     
 1451                           	13.0000     
 680                            	32.0000     
 1096                           	34.7000     
 1938                           	28.0000     
 752                            	13.0000     
 347                            	16.0000     
 565                            	11.0000     
 1645                           	7.0000      
 1959                           	3.0000      
 803                            	16.0000     
 2026                           	14.0000     
 23                             	26.0000     
 193                            	27.0000     
 860                            	21.0000     
 502                            	32.0000     
 1893                           	23.0000     
 620                            	36.0000     
 610                            	36.0000     
 844                            	16.0000     
 1539                           	7.0000      
 1774                           	30.0000     
 18                             	7.0000      
 1619                           	19.0000     
 1620                           	19.0000     
 769                            	4.0000      
 1781                           	11.0000     
 1138                           	41.0000     
 1628                           	9.0000      
 550                            	12.0000     
 689                            	4.0000      
 789                            	16.0000     
 40                             	26.0000     
 770                            	4.0000      
 511                            	12.0000     
 586                            	39.0000     
 1297                           	26.0000     
 1299                           	26.0000     
 135                            	33.0000     
 1942                           	28.0000     
 942                            	2.0000      
 1987                           	8.9000      
 1982                           	8.4000      
 1983                           	8.9000      
 1995                           	8.9000      
 1992                           	9.1000      
 2001                           	8.4000      
 1988                           	8.4000      
 1978                           	9.2000      
 672                            	39.0000     
 1796                           	21.0000     
 1932                           	13.0000     
 564                            	11.0000     
 926                            	3.0000      
 797                            	16.0000     
 1512                           	32.0000     
 1906                           	7.0000      
 272                            	12.0000     
 183                            	4.3000      
 566                            	10.0000     
 1163                           	41.0000     
 1795                           	21.0000     
 1790                           	21.0000     
 1789                           	21.0000     
 507                            	14.0000     
 357                            	16.0000     
 323                            	2.0000      
 22                             	7.0000      
 1045                           	32.9000     
 1186                           	33.0000     
 1665                           	36.0000     
 226                            	21.0000     
 703                            	12.0000     
 1503                           	6.0000      
 192                            	19.0000     
 262                            	6.0000      
 1550                           	2.0000      
 878                            	16.0000     
 1328                           	25.0000     
 16                             	25.0000     
 370                            	40.0000     
 1117                           	32.9000     
 510                            	12.0000     
 1110                           	6.0000      
 1156                           	41.0000     
 283                            	12.0000     
 1180                           	34.0000     
 715                            	34.0000     
 998                            	34.0000     
 452                            	12.0000     
 1585                           	32.0000     
 19                             	7.0000      
 232                            	4.3000      
 729                            	13.0000     
 717                            	13.0000     
 1955                           	13.0000     
 1047                           	35.0000     
 1036                           	35.0000     
 607                            	3.0000      
 73                             	41.0000     
 284                            	12.0000     
 1039                           	35.0000     
 7                              	33.0000     
 611                            	41.0000     
 1914                           	32.0000     
 834                            	1.6000      
 172                            	18.0000     
 1827                           	21.0000     
 774                            	16.0000     
 343                            	32.0000     
 720                            	7.0000      
 723                            	34.0000     
 832                            	16.0000     
 801                            	16.0000     
 1376                           	6.0000      
 907                            	21.0000     
 166                            	18.0000     
 697                            	4.0000      
 695                            	4.0000      
 872                            	1.6000      
 909                            	21.0000     
 353                            	45.0000     
 1953                           	21.0000     
 688                            	21.0000     
 374                            	41.0000     
 372                            	34.0000     
 1198                           	36.0000     
 659                            	36.0000     
 821                            	1.2000      
 1568                           	2.0000      
 447                            	22.0000     
 1202                           	36.0000     
 338                            	17.0000     
 346                            	17.0000     
 1201                           	36.0000     
 830                            	1.4000      
 919                            	2.0000      
 352                            	36.0000     
 364                            	26.0000     
 576                            	21.0000     
 542                            	21.0000     
 745                            	16.0000     
 1976                           	13.0000     
 700                            	15.8000     
 1190                           	32.9000     
 1505                           	9.0000      
 633                            	14.0000     
 72                             	22.0000     
 113                            	24.0000     
 1683                           	6.0000      
 1659                           	6.0000      
 1669                           	6.0000      
 1528                           	3.0000      
 1681                           	15.6000     
 340                            	17.0000     
 1670                           	6.0000      
 1652                           	6.0000      
 754                            	14.0000     
 764                            	14.0000     
 758                            	14.0000     
 1901                           	4.3000      
 1685                           	7.0000      
 1680                           	7.0000      
 1661                           	7.0000      
 1668                           	7.0000      
 1649                           	7.0000      
 1524                           	3.0000      
 1882                           	21.0000     
 687                            	16.0000     
 691                            	16.0000     
 692                            	16.0000     
 1879                           	8.0000      
 1219                           	25.0000     
 301                            	1.7000      
 533                            	17.0000     
 525                            	14.0000     
 318                            	6.0000      
 146                            	17.0000     
 79                             	13.0000     
 311                            	6.0000      
 741                            	16.0000     
 369                            	26.0000     
 524                            	7.0000      
 1714                           	12.0000     
 15                             	23.0000     
 616                            	19.0000     
 1567                           	15.0000     
 1561                           	13.0000     
 630                            	14.0000     
 556                            	17.0000     
 1469                           	7.0000      
 471                            	6.0000      
 470                            	14.0000     
 1785                           	12.8000     
 1612                           	12.0000     
 6                              	6.0000      
 1791                           	8.2000      
 1358                           	21.0000     
 380                            	34.0000     
 312                            	6.0000      
 591                            	13.0000     
 1074                           	34.0000     
 1084                           	57.1000     
 432                            	14.0000     
 1584                           	18.0000     
 1447                           	6.0000      
 1286                           	12.2000     
 914                            	7.0000      
 1434                           	25.0000     
 526                            	6.0000      
 108                            	16.5000     
 342                            	6.0000      
 1431                           	12.0000     
 1272                           	12.5000     
 2022                           	8.7000      
 734                            	18.0000     
 1573                           	13.0000     
 1602                           	13.0000     
 1600                           	13.0000     
 455                            	12.0000     
 1648                           	13.0000     
 1282                           	12.2000     
 1294                           	7.0000      
 825                            	24.0000     
 1767                           	12.0000     
 632                            	19.0000     
 1305                           	21.0000     
 580                            	7.0000      
 549                            	17.0000     
 726                            	57.1000     
 358                            	16.0000     
 531                            	17.0000     
 55                             	54.9000     
 886                            	6.0000      
 203                            	23.0000     
 642                            	11.0000     
 661                            	4.0000      
 1697                           	26.0000     
 465                            	32.0000     
 1732                           	28.0000     
 428                            	47.0000     
 271                            	32.0000     
 74                             	25.0000     
 1183                           	36.0000     
 41                             	54.9000     
 1081                           	47.0000     
 1519                           	7.0000      
 540                            	7.0000      
 442                            	7.0000      
 228                            	43.0000     
 761                            	14.0000     
 316                            	36.0000     
 1098                           	33.0000     
 1738                           	13.0000     
 253                            	16.0000     
 1777                           	12.8000     
 1557                           	2.0000      
 384                            	33.1000     
 1733                           	5.5000      
 24                             	14.6000     
 161                            	17.0000     
 307                            	36.0000     
 314                            	1.7000      
 958                            	4.4000      
 1666                           	14.4000     
 313                            	7.0000      
 171                            	23.0000     
 71                             	10.0000     
 1267                           	8.2000      
 985                            	32.0000     
 1105                           	47.0000     
 57                             	10.0000     
 1251                           	12.8000     
 126                            	24.0000     
 186                            	53.6000     
 596                            	28.0000     
 1554                           	22.0000     
 1604                           	18.0000     
 601                            	12.0000     
 1690                           	25.0000     
 1555                           	2.4000      
 1476                           	5.0000      
 1654                           	15.0000     
 1468                           	13.0000     
 91                             	15.8000     
 663                            	14.0000     
 739                            	9.0000      
 1206                           	32.0000     
 1019                           	3.4000      
 1574                           	19.0000     
 266                            	16.0000     
 1730                           	28.0000     
 2002                           	21.0000     
 1798                           	2.0000      
 1444                           	13.0000     
 1477                           	13.0000     
 1896                           	5.5000      
 1529                           	2.0000      
 2027                           	11.0000     
 362                            	9.0000      
 930                            	1.8000      
 1023                           	4.0000      
 94                             	15.8000     
 1380                           	9.0000      
 182                            	54.2000     
 839                            	1.8000      
 1102                           	32.0000     
 33                             	13.0000     
 1787                           	5.1000      
 2019                           	21.0000     
 1298                           	12.2000     
 1285                           	8.2000      
 1092                           	57.1000     
 468                            	31.0000     
 905                            	21.5000     
 1966                           	15.5000     
 288                            	29.6000     
 1752                           	12.0000     
 246                            	32.0000     
 780                            	16.0000     
 1012                           	4.6000      
 2012                           	8.9000      
 1656                           	23.0000     
 798                            	33.0000     
 1908                           	34.0000     
 1026                           	33.0000     
 1325                           	7.0000      
 808                            	6.0000      
 1189                           	4.4000      
 1540                           	23.0000     
 1182                           	7.0000      
 1761                           	8.2000      
 876                            	37.0000     
 867                            	4.9000      
 489                            	14.0000     
 856                            	21.0000     
 569                            	9.0000      
 1866                           	7.0000      
 1943                           	13.0000     
 787                            	14.0000     
 817                            	1.0000      
 294                            	34.0000     
 693                            	14.9000     
 46                             	15.8000     
 1287                           	11.0000     
 469                            	21.0000     
 1946                           	3.0000      
 265                            	29.6000     
 45                             	15.8000     
 1676                           	24.0000     
 929                            	37.0000     
 1678                           	14.9000     
 1826                           	2.0000      
 403                            	33.1000     
 238                            	4.3000      
 1432                           	6.0000      
 259                            	43.0000     
 1576                           	10.0000     
 479                            	7.0000      
 1797                           	7.5000      
 458                            	17.0000     
 981                            	4.6000      
 728                            	8.0000      
 1043                           	4.0000      
 223                            	7.0000      
 1040                           	3.4000      
 481                            	7.0000      
 583                            	13.8000     
 592                            	7.3000      
 996                            	4.6000      
 1253                           	7.5000      
 116                            	16.6000     
 614                            	33.0000     
 612                            	19.0000     
 933                            	1.8000      
 1858                           	6.1000      
 848                            	2.4000      
 1396                           	6.0000      
 400                            	2.4000      
 2005                           	21.0000     
 1881                           	6.0000      
 361                            	40.5000     
 394                            	41.5000     
 1658                           	23.0000     
 1212                           	8.0000      
 1816                           	12.0000     
 784                            	9.0000      
 2                              	13.0000     
 1075                           	33.5000     
 1208                           	34.7000     
 30                             	7.0000      
 791                            	3.0000      
 1722                           	7.5000      
 86                             	15.8000     
 1693                           	8.0000      
 1922                           	8.0000      
 962                            	32.0000     
 443                            	31.4000     
 1725                           	7.3000      
 480                            	31.0000     
 1361                           	7.0000      
 626                            	13.8000     
 1027                           	4.0000      
 451                            	7.0000      
 337                            	8.0000      
 488                            	31.0000     
 1368                           	7.0000      
 545                            	13.8000     
 594                            	13.8000     
 922                            	4.4000      
 541                            	14.9000     
 402                            	33.1000     
 482                            	17.0000     
 84                             	22.0000     
 355                            	34.0000     
 1037                           	4.0000      
 1276                           	12.5000     
 1484                           	2.0000      
 478                            	31.0000     
 31                             	21.0000     
 1441                           	2.0000      
 1422                           	9.0000      
 1030                           	3.6000      
 1856                           	8.5000      
 1824                           	7.5000      
 1855                           	8.5000      
 532                            	32.0000     
 48                             	15.8000     
 315                            	36.0000     
 1377                           	16.0000     
 1991                           	21.0000     
 354                            	34.1000     
 1591                           	10.7000     
 599                            	17.0000     
 643                            	2.0000      
 544                            	13.8000     
 1556                           	2.0000      
 1246                           	12.8000     
 865                            	21.0000     
 520                            	8.0000      
 1522                           	3.0000      
 1502                           	7.0000      
 1229                           	8.0000      
 1622                           	2.0000      
 1999                           	11.0000     
 115                            	18.0000     
 854                            	18.5000     
 884                            	21.0000     
 276                            	12.0000     
 875                            	16.0000     
 584                            	13.8000     
 473                            	8.0000      
 325                            	4.4000      
 2007                           	21.0000     
 120                            	0.0000      
 5555                           	0.0000      
 3003                           	11.0000     
 3004                           	73.5400     
 3005                           	30.5000     
 3006                           	33.0000     
 3007                           	16.0000     

[RESERVOIRS]
;;ID                             	Head        	Pattern                        
 3001                           	58.4000     	                               
 3002                           	62.4210     	                               

[TANKS]
;;ID                             	Elevation   	InitLevel   	MinLevel    	MaxLevel    	Diameter    	MinVol      	VolCurve                       	Overflow    

[PIPES]
;;ID                             	Node1                          	Node2                          	Length      	Diameter    	Roughness   	MinorLoss   	Status
 2062                           	793                            	810                            	300.0000    	102.0000    	4.5000      	0.0000      	      
 2055                           	694                            	707                            	310.0000    	152.0000    	3.5000      	0.0000      	      
 2049                           	786                            	819                            	170.0000    	152.0000    	2.2500      	0.0000      	      
 2050                           	763                            	786                            	190.0000    	152.0000    	3.0000      	0.0000      	      
 2072                           	1960                           	758                            	150.0000    	152.0000    	3.5000      	0.0000      	      
 2054                           	725                            	1956                           	180.0000    	474.0000    	2.0000      	0.0000      	      
 2064                           	175                            	185                            	270.0000    	102.0000    	3.0000      	0.0000      	      
 2066                           	176                            	177                            	180.0000    	152.0000    	3.5000      	0.0000      	      
 2070                           	150                            	1899                           	400.0000    	159.0000    	2.0000      	0.0000      	      
 2071                           	742                            	1970                           	280.0000    	102.0000    	10.0000     	0.0000      	      
 2053                           	699                            	1960                           	190.0000    	229.0000    	3.5000      	0.0000      	      
 2090                           	1973                           	818                            	250.0000    	102.0000    	10.0000     	0.0000      	      
 2048                           	701                            	736                            	430.0000    	152.0000    	3.0000      	0.0000      	      
 2129                           	1617                           	1616                           	340.0000    	152.0000    	4.0000      	0.0000      	      
 2130                           	1600                           	1602                           	1.0000      	150.0000    	0.0300      	0.0000      	      
 2056                           	835                            	847                            	150.0000    	229.0000    	2.5000      	0.0000      	      
 2061                           	1893                           	149                            	120.0000    	144.0000    	0.3000      	0.0000      	      
 2113                           	179                            	227                            	200.0000    	229.0000    	3.5000      	0.0000      	      
 2091                           	772                            	1970                           	210.0000    	102.0000    	10.0000     	0.0000      	      
 2067                           	178                            	168                            	180.0000    	152.0000    	3.5000      	0.0000      	      
 2068                           	1897                           	193                            	130.0000    	159.0000    	1.7500      	0.0000      	      
 2078                           	1236                           	1160                           	140.0000    	152.0000    	3.0000      	0.0000      	      
 2075                           	152                            	193                            	160.0000    	102.0000    	3.5000      	0.0000      	      
 2076                           	183                            	1896                           	179.0000    	150.0000    	0.0300      	0.0000      	      
 2060                           	138                            	137                            	180.0000    	152.0000    	3.5000      	0.0000      	      
 2081                           	762                            	815                            	390.0000    	152.0000    	4.5000      	0.0000      	      
 2083                           	160                            	215                            	150.0000    	229.0000    	3.5000      	0.0000      	      
 2084                           	117                            	230                            	320.0000    	102.0000    	3.5000      	0.0000      	      
 2112                           	206                            	221                            	180.0000    	102.0000    	3.0000      	0.0000      	      
 2098                           	752                            	753                            	360.0000    	144.0000    	0.3000      	0.0000      	      
 2092                           	1963                           	713                            	270.0000    	152.0000    	3.0000      	0.0000      	      
 2093                           	1963                           	763                            	160.0000    	152.0000    	3.0000      	0.0000      	      
 2110                           	232                            	183                            	161.0000    	150.0000    	0.0300      	0.0000      	      
 2136                           	1597                           	1646                           	200.0000    	152.0000    	3.5000      	0.0000      	      
 2097                           	1973                           	794                            	210.0000    	102.0000    	10.0000     	0.0000      	      
 2100                           	776                            	787                            	1.0000      	250.0000    	0.1000      	0.0000      	      
 2079                           	1433                           	1434                           	1.0000      	150.0000    	0.0300      	0.0000      	      
 2102                           	275                            	344                            	280.0000    	152.0000    	3.5000      	0.0000      	      
 2101                           	790                            	791                            	1.0000      	100.0000    	0.0300      	0.0000      	      
 2105                           	718                            	746                            	220.0000    	152.0000    	5.0000      	0.0000      	      
 2106                           	162                            	1895                           	190.0000    	152.0000    	3.5000      	0.0000      	      
 2107                           	1897                           	1900                           	180.0000    	159.0000    	1.7500      	0.0000      	      
 2109                           	177                            	188                            	140.0000    	152.0000    	3.5000      	0.0000      	      
 2116                           	171                            	142                            	379.0000    	236.0000    	2.5000      	0.0000      	      
 2117                           	221                            	192                            	180.0000    	102.0000    	3.0000      	0.0000      	      
 2115                           	245                            	275                            	70.0000     	152.0000    	3.5000      	0.0000      	      
 2086                           	221                            	195                            	310.0000    	102.0000    	3.0000      	0.0000      	      
 2088                           	201                            	216                            	80.0000     	152.0000    	3.7000      	0.0000      	      
 2089                           	219                            	220                            	140.0000    	102.0000    	3.5000      	0.0000      	      
 2153                           	1542                           	1563                           	250.0000    	159.0000    	2.5000      	0.0000      	      
 2135                           	1663                           	1643                           	1.0000      	300.0000    	0.1000      	0.0000      	      
 2132                           	1594                           	1652                           	340.0000    	229.0000    	3.5000      	0.0000      	      
 2128                           	10                             	48                             	105.0000    	152.0000    	3.5000      	0.0000      	      
 2142                           	1588                           	1599                           	280.0000    	152.0000    	4.5000      	0.0000      	      
 2143                           	1618                           	1629                           	180.0000    	152.0000    	3.5000      	0.0000      	      
 2114                           	215                            	252                            	190.0000    	229.0000    	3.5000      	0.0000      	      
 2178                           	1628                           	1629                           	110.0000    	102.0000    	3.5000      	0.0000      	      
 2179                           	1630                           	1659                           	280.0000    	152.0000    	3.5000      	0.0000      	      
 2182                           	1631                           	1645                           	150.0000    	102.0000    	3.5000      	0.0000      	      
 2149                           	1542                           	1525                           	290.0000    	106.0000    	2.5000      	0.0000      	      
 2150                           	1550                           	1529                           	1.0000      	236.0000    	0.1000      	0.0000      	      
 2148                           	1599                           	1660                           	500.0000    	152.0000    	3.0000      	0.0000      	      
 2175                           	1552                           	1556                           	131.0000    	319.0000    	2.0000      	0.0000      	      
 2177                           	1628                           	1675                           	110.0000    	152.0000    	3.5000      	0.0000      	      
 2151                           	1568                           	1552                           	160.0000    	391.0000    	0.5000      	0.0000      	      
 2174                           	1585                           	1665                           	340.0000    	474.0000    	11.0000     	0.0000      	      
 2131                           	1622                           	314                            	2000.0000   	491.0000    	0.5000      	0.0000      	      
 2156                           	1591                           	1576                           	330.0000    	101.0000    	0.0300      	0.0000      	      
 2157                           	1599                           	1584                           	1.0000      	200.0000    	0.1000      	0.0000      	      
 2125                           	137                            	169                            	200.0000    	229.0000    	3.5000      	0.0000      	      
 2127                           	1629                           	1638                           	150.0000    	102.0000    	3.5000      	0.0000      	      
 2119                           	184                            	295                            	320.0000    	152.0000    	3.5000      	0.0000      	      
 2121                           	695                            	697                            	1.0000      	159.0000    	10.0000     	0.0000      	      
 2122                           	203                            	199                            	99.0000     	319.0000    	1.7500      	0.0000      	      
 2123                           	169                            	204                            	210.0000    	229.0000    	3.5000      	0.0000      	      
 2138                           	1528                           	1524                           	237.0000    	236.0000    	2.0000      	0.0000      	      
 2144                           	1605                           	1618                           	130.0000    	229.0000    	3.5000      	0.0000      	      
 2145                           	1598                           	1605                           	80.0000     	229.0000    	3.5000      	0.0000      	      
 2147                           	1773                           	1300                           	260.0000    	102.0000    	4.0000      	0.0000      	      
 2137                           	1594                           	1593                           	230.0000    	102.0000    	3.5000      	0.0000      	      
 2173                           	1557                           	1623                           	300.0000    	250.0000    	0.1000      	0.0000      	      
 2200                           	548                            	608                            	330.0000    	102.0000    	3.0000      	0.0000      	      
 2162                           	1593                           	1595                           	210.0000    	102.0000    	3.5000      	0.0000      	      
 2169                           	1578                           	1530                           	370.0000    	152.0000    	3.5000      	0.0000      	      
 2168                           	1569                           	1582                           	330.0000    	229.0000    	1.0000      	0.0000      	      
 2229                           	128                            	115                            	1.0000      	150.0000    	0.0300      	0.0000      	      
 2171                           	1604                           	1599                           	130.0000    	387.0000    	5.0000      	0.0000      	      
 2206                           	1895                           	212                            	240.0000    	152.0000    	3.5000      	0.0000      	      
 2205                           	1515                           	1595                           	330.0000    	229.0000    	3.5000      	0.0000      	      
 2230                           	104                            	80                             	230.0000    	102.0000    	3.0000      	0.0000      	      
 2163                           	1777                           	1785                           	1.0000      	110.0000    	0.0300      	0.0000      	      
 2164                           	1556                           	1555                           	5.0000      	288.0000    	0.3000      	0.0000      	      
 2158                           	1586                           	1574                           	1.0000      	150.0000    	0.0300      	0.0000      	      
 2120                           	195                            	192                            	150.0000    	102.0000    	3.0000      	0.0000      	      
 2166                           	1593                           	1630                           	120.0000    	152.0000    	3.5000      	0.0000      	      
 2204                           	1526                           	1559                           	120.0000    	229.0000    	1.0000      	0.0000      	      
 2187                           	1596                           	1642                           	390.0000    	152.0000    	3.5000      	0.0000      	      
 2188                           	1582                           	1591                           	92.0000     	152.0000    	3.5000      	0.0000      	      
 2190                           	1555                           	1557                           	255.0000    	288.0000    	0.3000      	0.0000      	      
 2191                           	1557                           	1564                           	300.0000    	250.0000    	0.1000      	0.0000      	      
 2193                           	1521                           	1534                           	90.0000     	310.0000    	3.5000      	0.0000      	      
 2194                           	1491                           	1489                           	160.0000    	152.0000    	3.0000      	0.0000      	      
 2167                           	1550                           	1497                           	270.0000    	319.0000    	2.2500      	0.0000      	      
 2170                           	1616                           	1580                           	170.0000    	152.0000    	4.0000      	0.0000      	      
 2172                           	1583                           	1647                           	220.0000    	102.0000    	3.5000      	0.0000      	      
 2196                           	1546                           	1621                           	460.0000    	387.0000    	20.0000     	0.0000      	      
 2197                           	1560                           	1561                           	1.0000      	150.0000    	0.0300      	0.0000      	      
 2233                           	159                            	158                            	140.0000    	152.0000    	3.5000      	0.0000      	      
 2210                           	1550                           	1556                           	125.0000    	319.0000    	2.0000      	0.0000      	      
 2211                           	1547                           	1543                           	260.0000    	152.0000    	4.5000      	0.0000      	      
 2212                           	1552                           	1556                           	133.0000    	319.0000    	2.0000      	0.0000      	      
 2184                           	1528                           	1552                           	169.0000    	314.0000    	0.3000      	0.0000      	      
 2207                           	162                            	202                            	430.0000    	387.0000    	20.5000     	0.0000      	      
 2227                           	1889                           	194                            	140.0000    	229.0000    	3.5000      	0.0000      	      
 2189                           	1565                           	1566                           	80.0000     	102.0000    	4.0000      	0.0000      	      
 2224                           	1568                           	1622                           	385.0000    	491.0000    	0.5000      	0.0000      	      
 2225                           	1525                           	1513                           	240.0000    	102.0000    	4.0000      	0.0000      	      
 2222                           	1572                           	1589                           	180.0000    	152.0000    	3.5000      	0.0000      	      
 2183                           	1558                           	1559                           	280.0000    	152.0000    	4.5000      	0.0000      	      
 2250                           	1534                           	1541                           	130.0000    	310.0000    	3.5000      	0.0000      	      
 2251                           	174                            	1896                           	90.0000     	229.0000    	3.5000      	0.0000      	      
 2258                           	1873                           	1837                           	210.0000    	144.0000    	1.0000      	0.0000      	      
 2267                           	148                            	207                            	350.0000    	229.0000    	3.5000      	0.0000      	      
 2304                           	705                            	1957                           	180.0000    	102.0000    	3.5000      	0.0000      	      
 2305                           	450                            	413                            	250.0000    	106.0000    	2.5000      	0.0000      	      
 2256                           	1509                           	1519                           	1.0000      	200.0000    	0.1000      	0.0000      	      
 2223                           	162                            	161                            	1.0000      	150.0000    	0.0300      	0.0000      	      
 2218                           	1564                           	1626                           	200.0000    	300.0000    	0.3000      	0.0000      	      
 2219                           	1586                           	1588                           	290.0000    	152.0000    	4.5000      	0.0000      	      
 2220                           	1586                           	1604                           	420.0000    	387.0000    	5.0000      	0.0000      	      
 2228                           	1888                           	148                            	240.0000    	152.0000    	3.5000      	0.0000      	      
 2215                           	1552                           	1537                           	1.0000      	300.0000    	0.1000      	0.0000      	      
 2216                           	1553                           	1572                           	150.0000    	152.0000    	3.0000      	0.0000      	      
 2213                           	1589                           	1628                           	270.0000    	152.0000    	3.5000      	0.0000      	      
 2214                           	1535                           	1503                           	160.0000    	102.0000    	3.5000      	0.0000      	      
 2202                           	1547                           	1558                           	230.0000    	152.0000    	4.5000      	0.0000      	      
 2208                           	1581                           	1631                           	160.0000    	229.0000    	3.5000      	0.0000      	      
 2266                           	156                            	1897                           	130.0000    	106.0000    	1.7500      	0.0000      	      
 2234                           	113                            	114                            	340.0000    	102.0000    	3.0000      	0.0000      	      
 2263                           	148                            	174                            	240.0000    	229.0000    	3.5000      	0.0000      	      
 2264                           	142                            	114                            	80.0000     	236.0000    	2.5000      	0.0000      	      
 2265                           	447                            	355                            	1480.0000   	152.0000    	5.0000      	0.0000      	      
 2262                           	1891                           	201                            	400.0000    	152.0000    	3.7000      	0.0000      	      
 2249                           	1527                           	1510                           	130.0000    	159.0000    	2.5000      	0.0000      	      
 2257                           	1542                           	1548                           	290.0000    	159.0000    	2.5000      	0.0000      	      
 2302                           	424                            	441                            	190.0000    	102.0000    	3.0000      	0.0000      	      
 2245                           	1571                           	1578                           	120.0000    	102.0000    	3.5000      	0.0000      	      
 2246                           	124                            	179                            	270.0000    	229.0000    	3.5000      	0.0000      	      
 2253                           	158                            	219                            	170.0000    	102.0000    	3.5000      	0.0000      	      
 2308                           	456                            	1923                           	160.0000    	152.0000    	3.5000      	0.0000      	      
 2255                           	1524                           	1686                           	720.0000    	310.0000    	12.5000     	0.0000      	      
 2221                           	1549                           	1608                           	440.0000    	152.0000    	3.5000      	0.0000      	      
 2248                           	1510                           	1538                           	310.0000    	159.0000    	2.5000      	0.0000      	      
 2307                           	444                            	448                            	180.0000    	106.0000    	2.5000      	0.0000      	      
 2235                           	125                            	153                            	160.0000    	152.0000    	3.5000      	0.0000      	      
 2238                           	145                            	160                            	240.0000    	152.0000    	3.7000      	0.0000      	      
 2239                           	139                            	138                            	270.0000    	152.0000    	3.5000      	0.0000      	      
 2241                           	127                            	154                            	430.0000    	102.0000    	3.0000      	0.0000      	      
 2242                           	124                            	125                            	210.0000    	152.0000    	3.5000      	0.0000      	      
 2268                           	1860                           	1863                           	90.0000     	152.0000    	4.0000      	0.0000      	      
 2269                           	131                            	105                            	140.0000    	152.0000    	3.7000      	0.0000      	      
 2296                           	411                            	492                            	360.0000    	319.0000    	20.0000     	0.0000      	      
 2273                           	149                            	181                            	220.0000    	144.0000    	0.3000      	0.0000      	      
 2244                           	1739                           	1801                           	180.0000    	152.0000    	8.0000      	0.0000      	      
 2299                           	456                            	475                            	160.0000    	102.0000    	3.5000      	0.0000      	      
 2298                           	144                            	146                            	1.0000      	150.0000    	0.0300      	0.0000      	      
 2301                           	445                            	1921                           	290.0000    	152.0000    	3.0000      	0.0000      	      
 2243                           	1548                           	1580                           	260.0000    	152.0000    	4.0000      	0.0000      	      
 2303                           	678                            	687                            	180.0000    	102.0000    	3.5000      	0.0000      	      
 2236                           	128                            	150                            	170.0000    	152.0000    	3.7000      	0.0000      	      
 2289                           	450                            	452                            	90.0000     	106.0000    	2.5000      	0.0000      	      
 2283                           	105                            	128                            	220.0000    	387.0000    	20.5000     	0.0000      	      
 2284                           	450                            	504                            	180.0000    	106.0000    	2.5000      	0.0000      	      
 2293                           	408                            	424                            	180.0000    	102.0000    	3.0000      	0.0000      	      
 2275                           	104                            	95                             	300.0000    	102.0000    	3.0000      	0.0000      	      
 2276                           	126                            	118                            	280.0000    	152.0000    	3.0000      	0.0000      	      
 2285                           	453                            	455                            	1.0000      	200.0000    	0.1000      	0.0000      	      
 2286                           	112                            	184                            	180.0000    	152.0000    	3.5000      	0.0000      	      
 2287                           	528                            	470                            	333.0000    	159.0000    	0.0300      	0.0000      	      
 2278                           	389                            	393                            	120.0000    	152.0000    	3.5000      	0.0000      	      
 2277                           	553                            	589                            	270.0000    	106.0000    	2.0000      	0.0000      	      
 2327                           	665                            	675                            	1.0000      	300.0000    	0.1000      	0.0000      	      
 2328                           	442                            	451                            	37.0000     	110.0000    	0.0300      	0.0000      	      
 2350                           	660                            	666                            	260.0000    	102.0000    	3.0000      	0.0000      	      
 2326                           	419                            	418                            	110.0000    	152.0000    	3.0000      	0.0000      	      
 2332                           	431                            	406                            	200.0000    	102.0000    	3.2000      	0.0000      	      
 2333                           	527                            	495                            	190.0000    	102.0000    	3.0000      	0.0000      	      
 2279                           	440                            	431                            	260.0000    	102.0000    	3.2000      	0.0000      	      
 2280                           	102                            	1892                           	350.0000    	152.0000    	3.5000      	0.0000      	      
 2312                           	415                            	416                            	90.0000     	159.0000    	2.5000      	0.0000      	      
 2306                           	421                            	438                            	140.0000    	310.0000    	20.0000     	0.0000      	      
 2344                           	1892                           	209                            	80.0000     	152.0000    	3.5000      	0.0000      	      
 2345                           	1951                           	661                            	1.0000      	100.0000    	0.0300      	0.0000      	      
 2343                           	448                            	450                            	180.0000    	106.0000    	2.5000      	0.0000      	      
 2335                           	156                            	152                            	160.0000    	106.0000    	1.7500      	0.0000      	      
 2324                           	402                            	384                            	1.0000      	150.0000    	0.0300      	0.0000      	      
 2325                           	2034                           	2042                           	100.0000    	310.0000    	15.0000     	0.0000      	      
 2337                           	129                            	1892                           	180.0000    	102.0000    	3.5000      	0.0000      	      
 2346                           	392                            	388                            	210.0000    	152.0000    	3.5000      	0.0000      	      
 2347                           	683                            	702                            	140.0000    	152.0000    	5.0000      	0.0000      	      
 2336                           	139                            	196                            	370.0000    	152.0000    	3.5000      	0.0000      	      
 2315                           	433                            	410                            	280.0000    	106.0000    	2.2500      	0.0000      	      
 2351                           	606                            	654                            	350.0000    	106.0000    	2.0000      	0.0000      	      
 2317                           	529                            	553                            	130.0000    	106.0000    	2.0000      	0.0000      	      
 2352                           	706                            	709                            	190.0000    	159.0000    	10.0000     	0.0000      	      
 2356                           	643                            	600                            	230.0000    	474.0000    	7.0000      	0.0000      	      
 2318                           	649                            	663                            	603.0000    	101.0000    	0.0300      	0.0000      	      
 2321                           	387                            	395                            	130.0000    	152.0000    	3.5000      	0.0000      	      
 2322                           	658                            	652                            	140.0000    	102.0000    	3.5000      	0.0000      	      
 2323                           	669                            	710                            	290.0000    	159.0000    	2.2500      	0.0000      	      
 2386                           	636                            	1947                           	140.0000    	310.0000    	10.0000     	0.0000      	      
 2372                           	659                            	1950                           	100.0000    	152.0000    	3.0000      	0.0000      	      
 2348                           	632                            	668                            	229.0000    	229.0000    	3.5000      	0.0000      	      
 2387                           	636                            	634                            	100.0000    	106.0000    	2.0000      	0.0000      	      
 2388                           	606                            	657                            	370.0000    	106.0000    	2.0000      	0.0000      	      
 2339                           	401                            	415                            	80.0000     	159.0000    	2.5000      	0.0000      	      
 2374                           	631                            	588                            	440.0000    	102.0000    	3.0000      	0.0000      	      
 2375                           	600                            	607                            	1.0000      	300.0000    	0.1000      	0.0000      	      
 2338                           	158                            	166                            	120.0000    	102.0000    	3.5000      	0.0000      	      
 2362                           	634                            	1944                           	290.0000    	106.0000    	2.0000      	0.0000      	      
 2389                           	585                            	561                            	180.0000    	152.0000    	3.0000      	0.0000      	      
 2353                           	401                            	357                            	160.0000    	152.0000    	3.5000      	0.0000      	      
 2382                           	699                            	668                            	190.0000    	229.0000    	3.5000      	0.0000      	      
 2383                           	650                            	637                            	1.0000      	102.0000    	3.7000      	0.0000      	      
 2370                           	1953                           	1956                           	110.0000    	152.0000    	3.5000      	0.0000      	      
 2354                           	398                            	367                            	270.0000    	262.0000    	2.2500      	0.0000      	      
 2358                           	649                            	663                            	12.0000     	101.0000    	0.0300      	0.0000      	      
 2397                           	622                            	632                            	1.0000      	76.0000     	0.0500      	0.0000      	      
 2413                           	664                            	662                            	230.0000    	102.0000    	3.5000      	0.0000      	      
 2414                           	628                            	649                            	250.0000    	152.0000    	3.0000      	0.0000      	      
 2411                           	574                            	536                            	160.0000    	97.0000     	0.3000      	0.0000      	      
 2395                           	655                            	682                            	240.0000    	102.0000    	3.0000      	0.0000      	      
 2404                           	649                            	684                            	310.0000    	102.0000    	3.0000      	0.0000      	      
 2364                           	627                            	626                            	81.0000     	310.0000    	3.5000      	0.0000      	      
 2366                           	603                            	1949                           	210.0000    	102.0000    	3.5000      	0.0000      	      
 2367                           	674                            	731                            	330.0000    	102.0000    	3.0000      	0.0000      	      
 2392                           	624                            	630                            	1.0000      	100.0000    	0.0300      	0.0000      	      
 2377                           	674                            	670                            	130.0000    	152.0000    	3.0000      	0.0000      	      
 2378                           	1947                           	577                            	130.0000    	310.0000    	10.0000     	0.0000      	      
 2379                           	1949                           	662                            	250.0000    	102.0000    	3.5000      	0.0000      	      
 2390                           	640                            	653                            	110.0000    	159.0000    	2.0000      	0.0000      	      
 2408                           	624                            	626                            	51.0000     	310.0000    	3.5000      	0.0000      	      
 2406                           	622                            	616                            	1.0000      	50.0000     	0.0500      	0.0000      	      
 2407                           	643                            	689                            	1080.0000   	474.0000    	7.0000      	0.0000      	      
 2433                           	626                            	583                            	74.0000     	101.0000    	0.0300      	0.0000      	      
 2443                           	576                            	622                            	280.0000    	229.0000    	3.0000      	0.0000      	      
 2444                           	1940                           	527                            	280.0000    	102.0000    	3.0000      	0.0000      	      
 2417                           	589                            	640                            	140.0000    	159.0000    	2.0000      	0.0000      	      
 2419                           	622                            	691                            	550.0000    	400.0000    	0.3400      	0.0000      	      
 2403                           	1950                           	585                            	330.0000    	152.0000    	3.0000      	0.0000      	      
 2400                           	476                            	516                            	100.0000    	102.0000    	3.5000      	0.0000      	      
 2415                           	582                            	608                            	190.0000    	106.0000    	2.0000      	0.0000      	      
 2361                           	684                            	685                            	281.0000    	101.0000    	0.0300      	0.0000      	      
 2421                           	593                            	623                            	320.0000    	310.0000    	3.5000      	0.0000      	      
 2456                           	592                            	400                            	928.0000    	495.0000    	0.5000      	0.0000      	      
 2457                           	570                            	562                            	170.0000    	102.0000    	3.0000      	0.0000      	      
 2422                           	560                            	637                            	560.0000    	102.0000    	3.7000      	0.0000      	      
 2423                           	631                            	575                            	300.0000    	102.0000    	3.0000      	0.0000      	      
 2398                           	627                            	642                            	1.0000      	150.0000    	0.0300      	0.0000      	      
 2399                           	631                            	672                            	160.0000    	102.0000    	3.0000      	0.0000      	      
 2396                           	625                            	669                            	370.0000    	159.0000    	0.0300      	0.0000      	      
 2429                           	1942                           	596                            	1.0000      	159.0000    	2.0000      	0.0000      	      
 2420                           	575                            	588                            	170.0000    	152.0000    	3.0000      	0.0000      	      
 2425                           	608                            	543                            	220.0000    	102.0000    	3.0000      	0.0000      	      
 2426                           	1942                           	647                            	280.0000    	474.0000    	2.0000      	0.0000      	      
 2436                           	620                            	621                            	150.0000    	152.0000    	3.0000      	0.0000      	      
 2434                           	558                            	560                            	400.0000    	102.0000    	3.5000      	0.0000      	      
 2448                           	1945                           	1947                           	120.0000    	159.0000    	2.0000      	0.0000      	      
 2445                           	583                            	544                            	65.0000     	101.0000    	0.0300      	0.0000      	      
 2480                           	88                             	97                             	270.0000    	102.0000    	3.5000      	0.0000      	      
 2477                           	1505                           	1546                           	390.0000    	387.0000    	20.0000     	0.0000      	      
 2486                           	45                             	46                             	30.0000     	102.0000    	3.0000      	0.0000      	      
 2453                           	623                            	624                            	160.0000    	310.0000    	3.5000      	0.0000      	      
 2452                           	585                            	631                            	290.0000    	102.0000    	3.0000      	0.0000      	      
 2491                           	89                             	88                             	170.0000    	102.0000    	3.5000      	0.0000      	      
 2490                           	72                             	7                              	1320.0000   	152.0000    	4.5000      	0.0000      	      
 2461                           	574                            	586                            	350.0000    	144.0000    	0.3000      	0.0000      	      
 2458                           	1539                           	1597                           	400.0000    	152.0000    	3.5000      	0.0000      	      
 2459                           	481                            	451                            	214.0000    	110.0000    	0.0300      	0.0000      	      
 2472                           	568                            	569                            	160.0000    	102.0000    	3.5000      	0.0000      	      
 2494                           	117                            	184                            	150.0000    	152.0000    	3.5000      	0.0000      	      
 2463                           	586                            	610                            	110.0000    	144.0000    	0.3000      	0.0000      	      
 2464                           	577                            	540                            	220.0000    	310.0000    	10.0000     	0.0000      	      
 2466                           	622                            	612                            	1.0000      	150.0000    	0.0300      	0.0000      	      
 2467                           	437                            	432                            	1.0000      	150.0000    	0.0300      	0.0000      	      
 2468                           	467                            	530                            	380.0000    	102.0000    	3.0000      	0.0000      	      
 2469                           	621                            	613                            	180.0000    	152.0000    	3.0000      	0.0000      	      
 2450                           	582                            	543                            	330.0000    	106.0000    	2.0000      	0.0000      	      
 2449                           	588                            	613                            	210.0000    	152.0000    	0.3000      	0.0000      	      
 2439                           	83                             	137                            	270.0000    	152.0000    	3.5000      	0.0000      	      
 2492                           	86                             	102                            	84.0000     	152.0000    	3.5000      	0.0000      	      
 2438                           	565                            	567                            	260.0000    	152.0000    	3.0000      	0.0000      	      
 2440                           	1500                           	1521                           	380.0000    	310.0000    	3.5000      	0.0000      	      
 2478                           	44                             	57                             	1.0000      	229.0000    	0.0300      	0.0000      	      
 2432                           	438                            	490                            	330.0000    	310.0000    	20.0000     	0.0000      	      
 2479                           	104                            	113                            	180.0000    	102.0000    	3.0000      	0.0000      	      
 2481                           	119                            	118                            	150.0000    	152.0000    	3.0000      	0.0000      	      
 2487                           	78                             	103                            	420.0000    	102.0000    	3.0000      	0.0000      	      
 2488                           	87                             	105                            	300.0000    	387.0000    	20.5000     	0.0000      	      
 2507                           	25                             	54                             	50.0000     	152.0000    	3.5000      	0.0000      	      
 2441                           	77                             	90                             	1.0000      	300.0000    	0.1000      	0.0000      	      
 2502                           	98                             	117                            	90.0000     	152.0000    	3.5000      	0.0000      	      
 2505                           	1481                           	1544                           	290.0000    	229.0000    	3.5000      	0.0000      	      
 2508                           	88                             	125                            	290.0000    	152.0000    	3.5000      	0.0000      	      
 2471                           	446                            	463                            	310.0000    	159.0000    	2.5000      	0.0000      	      
 2542                           	53                             	92                             	170.0000    	152.0000    	3.7000      	0.0000      	      
 2543                           	68                             	58                             	9.0000      	150.0000    	0.0300      	0.0000      	      
 2515                           	412                            	419                            	430.0000    	152.0000    	3.0000      	0.0000      	      
 2516                           	12                             	1677                           	90.0000     	152.0000    	3.5000      	0.0000      	      
 2541                           	38                             	33                             	1.0000      	200.0000    	0.1000      	0.0000      	      
 2513                           	54                             	36                             	320.0000    	152.0000    	3.5000      	0.0000      	      
 2498                           	1493                           	1508                           	200.0000    	229.0000    	1.0000      	0.0000      	      
 2499                           	1478                           	1470                           	270.0000    	152.0000    	4.5000      	0.0000      	      
 2496                           	86                             	91                             	277.0000    	110.0000    	0.0300      	0.0000      	      
 2497                           	109                            	162                            	140.0000    	102.0000    	3.2000      	0.0000      	      
 2475                           	1536                           	1583                           	170.0000    	102.0000    	3.5000      	0.0000      	      
 2482                           	112                            	1889                           	180.0000    	229.0000    	3.5000      	0.0000      	      
 2483                           	76                             	81                             	80.0000     	102.0000    	3.0000      	0.0000      	      
 2484                           	75                             	110                            	380.0000    	102.0000    	3.5000      	0.0000      	      
 2485                           	116                            	91                             	187.0000    	110.0000    	0.0300      	0.0000      	      
 2495                           	82                             	139                            	270.0000    	152.0000    	3.5000      	0.0000      	      
 2511                           	95                             	76                             	190.0000    	102.0000    	3.0000      	0.0000      	      
 2489                           	101                            	103                            	260.0000    	102.0000    	3.0000      	0.0000      	      
 2533                           	118                            	104                            	180.0000    	102.0000    	3.0000      	0.0000      	      
 2545                           	68                             	94                             	61.0000     	150.0000    	0.0300      	0.0000      	      
 2582                           	37                             	89                             	180.0000    	102.0000    	3.5000      	0.0000      	      
 2587                           	1471                           	1463                           	180.0000    	106.0000    	2.5000      	0.0000      	      
 2584                           	102                            	129                            	170.0000    	152.0000    	3.5000      	0.0000      	      
 2585                           	26                             	1674                           	193.0000    	101.0000    	0.0300      	0.0000      	      
 2558                           	1469                           	1515                           	339.0000    	229.0000    	3.5000      	0.0000      	      
 2514                           	61                             	79                             	1.0000      	229.0000    	0.1000      	0.0000      	      
 2530                           	94                             	24                             	341.0000    	102.0000    	3.7000      	0.0000      	      
 2527                           	45                             	1678                           	194.0000    	101.0000    	0.0300      	0.0000      	      
 2517                           	71                             	93                             	179.0000    	229.0000    	3.5000      	0.0000      	      
 2531                           	86                             	48                             	140.0000    	152.0000    	3.5000      	0.0000      	      
 2503                           	81                             	96                             	270.0000    	102.0000    	3.0000      	0.0000      	      
 2519                           	69                             	76                             	260.0000    	102.0000    	3.0000      	0.0000      	      
 2522                           	37                             	148                            	460.0000    	229.0000    	3.5000      	0.0000      	      
 2520                           	58                             	27                             	72.0000     	150.0000    	0.0300      	0.0000      	      
 2589                           	1470                           	1493                           	400.0000    	152.0000    	4.5000      	0.0000      	      
 2523                           	77                             	31                             	80.0000     	229.0000    	4.0000      	0.0000      	      
 2583                           	84                             	152                            	910.0000    	102.0000    	3.5000      	0.0000      	      
 2547                           	68                             	58                             	614.0000    	101.0000    	0.0300      	0.0000      	      
 2548                           	98                             	112                            	240.0000    	229.0000    	3.5000      	0.0000      	      
 2540                           	93                             	99                             	270.0000    	229.0000    	3.5000      	0.0000      	      
 2521                           	88                             	1888                           	260.0000    	152.0000    	3.5000      	0.0000      	      
 2538                           	100                            	320                            	1050.0000   	310.0000    	12.5000     	0.0000      	      
 2528                           	97                             	124                            	140.0000    	229.0000    	3.5000      	0.0000      	      
 2529                           	104                            	101                            	180.0000    	102.0000    	3.0000      	0.0000      	      
 2525                           	65                             	109                            	260.0000    	152.0000    	3.2000      	0.0000      	      
 2534                           	23                             	72                             	230.0000    	152.0000    	4.5000      	0.0000      	      
 2535                           	35                             	32                             	130.0000    	310.0000    	3.5000      	0.0000      	      
 2536                           	89                             	1888                           	350.0000    	102.0000    	3.5000      	0.0000      	      
 2576                           	32                             	30                             	1.0000      	229.0000    	0.0300      	0.0000      	      
 2577                           	1466                           	1426                           	210.0000    	159.0000    	2.5000      	0.0000      	      
 2560                           	20                             	1673                           	130.0000    	102.0000    	3.0000      	0.0000      	      
 2563                           	1467                           	1527                           	510.0000    	106.0000    	2.5000      	0.0000      	      
 2617                           	1474                           	1546                           	1230.0000   	464.0000    	6.7500      	0.0000      	      
 2561                           	42                             	70                             	70.0000     	152.0000    	3.5000      	0.0000      	      
 2559                           	35                             	121                            	560.0000    	229.0000    	3.5000      	0.0000      	      
 2614                           	1508                           	1526                           	130.0000    	229.0000    	1.0000      	0.0000      	      
 2615                           	1472                           	1464                           	470.0000    	229.0000    	3.0000      	0.0000      	      
 2616                           	1522                           	1552                           	156.0000    	314.0000    	0.3000      	0.0000      	      
 2618                           	1675                           	54                             	320.0000    	152.0000    	3.5000      	0.0000      	      
 2564                           	63                             	61                             	780.0000    	387.0000    	20.0000     	0.0000      	      
 2565                           	88                             	52                             	130.0000    	102.0000    	3.5000      	0.0000      	      
 2578                           	41                             	55                             	1.0000      	500.0000    	0.2000      	0.0000      	CV    
 2609                           	1514                           	1507                           	290.0000    	152.0000    	4.5000      	0.0000      	      
 2581                           	449                            	445                            	200.0000    	102.0000    	3.0000      	0.0000      	      
 2552                           	1480                           	1410                           	675.0000    	152.0000    	3.5000      	0.0000      	      
 2580                           	1506                           	1536                           	160.0000    	102.0000    	3.5000      	0.0000      	      
 2537                           	99                             	98                             	190.0000    	229.0000    	3.5000      	0.0000      	      
 2549                           	95                             	96                             	150.0000    	102.0000    	3.0000      	0.0000      	      
 2550                           	48                             	45                             	65.0000     	102.0000    	3.0000      	0.0000      	      
 2570                           	63                             	71                             	1.0000      	229.0000    	0.1000      	0.0000      	      
 2553                           	77                             	74                             	1.0000      	150.0000    	0.0300      	0.0000      	      
 2554                           	73                             	228                            	940.0000    	152.0000    	5.0000      	0.0000      	      
 2573                           	47                             	3                              	90.0000     	229.0000    	3.5000      	0.0000      	      
 2574                           	1499                           	1479                           	100.0000    	159.0000    	2.5000      	0.0000      	      
 2571                           	92                             	51                             	310.0000    	152.0000    	3.7000      	0.0000      	      
 2572                           	1501                           	1531                           	430.0000    	102.0000    	4.5000      	0.0000      	      
 2569                           	1474                           	1476                           	1.0000      	229.0000    	0.0300      	0.0000      	      
 2556                           	36                             	42                             	110.0000    	152.0000    	3.5000      	0.0000      	      
 2586                           	1490                           	1523                           	190.0000    	229.0000    	3.5000      	0.0000      	      
 2620                           	1668                           	1669                           	350.0000    	310.0000    	3.5000      	0.0000      	      
 2608                           	1468                           	1450                           	105.0000    	102.0000    	4.5000      	0.0000      	      
 2597                           	1517                           	1594                           	320.0000    	229.0000    	3.5000      	0.0000      	      
 2624                           	1483                           	1517                           	190.0000    	229.0000    	3.5000      	0.0000      	      
 2625                           	1541                           	1546                           	140.0000    	310.0000    	3.5000      	0.0000      	      
 2588                           	1514                           	1520                           	330.0000    	152.0000    	4.5000      	0.0000      	      
 2603                           	1495                           	1458                           	230.0000    	152.0000    	4.0000      	0.0000      	      
 2604                           	1482                           	1516                           	260.0000    	152.0000    	3.5000      	0.0000      	      
 2605                           	1484                           	1486                           	750.0000    	319.0000    	2.2500      	0.0000      	      
 2598                           	1467                           	1466                           	90.0000     	106.0000    	2.5000      	0.0000      	      
 2622                           	1545                           	1489                           	570.0000    	102.0000    	4.5000      	0.0000      	      
 2623                           	1531                           	1491                           	300.0000    	102.0000    	4.5000      	0.0000      	      
 2593                           	24                             	9                              	270.0000    	102.0000    	3.7000      	0.0000      	      
 2601                           	1                              	12                             	290.0000    	102.0000    	3.5000      	0.0000      	      
 2594                           	1468                           	1491                           	105.0000    	102.0000    	4.5000      	0.0000      	      
 2595                           	81                             	78                             	160.0000    	102.0000    	3.0000      	0.0000      	      
 2596                           	1514                           	1547                           	180.0000    	152.0000    	4.5000      	0.0000      	      
 2551                           	122                            	106                            	180.0000    	152.0000    	3.5000      	0.0000      	      
 2607                           	1474                           	1494                           	330.0000    	310.0000    	3.5000      	0.0000      	      
 2640                           	1406                           	1413                           	240.0000    	159.0000    	2.5000      	0.0000      	      
 2641                           	5                              	1671                           	140.0000    	102.0000    	3.0000      	0.0000      	      
 2642                           	1404                           	1432                           	181.0000    	464.0000    	6.5000      	0.0000      	      
 2643                           	1516                           	1593                           	320.0000    	152.0000    	3.5000      	0.0000      	      
 2635                           	1502                           	1480                           	230.0000    	146.0000    	0.0300      	0.0000      	      
 2610                           	1479                           	1487                           	340.0000    	159.0000    	2.5000      	0.0000      	      
 2592                           	1478                           	1514                           	290.0000    	152.0000    	4.5000      	0.0000      	      
 2637                           	1665                           	7                              	650.0000    	152.0000    	4.5000      	0.0000      	      
 2630                           	1674                           	1654                           	44.0000     	150.0000    	0.0300      	0.0000      	      
 2626                           	1496                           	1493                           	350.0000    	152.0000    	4.5000      	0.0000      	      
 2611                           	1507                           	1508                           	210.0000    	152.0000    	4.5000      	0.0000      	      
 2636                           	2                              	1691                           	110.0000    	102.0000    	3.5000      	0.0000      	      
 2613                           	1485                           	1529                           	259.0000    	236.0000    	2.0000      	0.0000      	      
 2660                           	1666                           	1654                           	221.0000    	154.0000    	3.7000      	0.0000      	      
 2661                           	1466                           	1465                           	300.0000    	106.0000    	2.5000      	0.0000      	      
 2612                           	1495                           	1492                           	240.0000    	102.0000    	4.0000      	0.0000      	      
 2631                           	1424                           	1374                           	180.0000    	229.0000    	1.0000      	0.0000      	      
 2632                           	1409                           	1405                           	1.0000      	152.0000    	4.5000      	0.0000      	      
 2633                           	1408                           	1403                           	90.0000     	106.0000    	2.0000      	0.0000      	      
 2639                           	1                              	25                             	260.0000    	152.0000    	3.5000      	0.0000      	      
 2644                           	1401                           	1412                           	210.0000    	152.0000    	3.0000      	0.0000      	      
 2645                           	18                             	1653                           	210.0000    	152.0000    	3.5000      	0.0000      	      
 2646                           	1543                           	1559                           	290.0000    	152.0000    	4.5000      	0.0000      	      
 2647                           	1501                           	1491                           	130.0000    	102.0000    	4.5000      	0.0000      	      
 2648                           	1483                           	1482                           	130.0000    	102.0000    	3.5000      	0.0000      	      
 2606                           	1497                           	1484                           	600.0000    	319.0000    	2.2500      	0.0000      	      
 2722                           	1365                           	1373                           	180.0000    	152.0000    	4.5000      	0.0000      	      
 2671                           	1418                           	1384                           	460.0000    	102.0000    	3.5000      	0.0000      	      
 2678                           	1413                           	1467                           	340.0000    	106.0000    	2.5000      	0.0000      	      
 2675                           	1423                           	1431                           	1.0000      	150.0000    	0.0300      	0.0000      	      
 2673                           	16                             	17                             	111.0000    	110.0000    	0.0300      	0.0000      	      
 2650                           	1504                           	1495                           	290.0000    	106.0000    	2.5000      	0.0000      	      
 2701                           	1380                           	1362                           	290.0000    	102.0000    	4.0000      	0.0000      	      
 2702                           	1306                           	1329                           	100.0000    	102.0000    	4.0000      	0.0000      	      
 2652                           	1674                           	1681                           	53.0000     	150.0000    	0.0300      	0.0000      	      
 2649                           	1494                           	1500                           	160.0000    	310.0000    	3.5000      	0.0000      	      
 2654                           	8                              	56                             	270.0000    	229.0000    	3.7000      	0.0000      	      
 2655                           	1687                           	1681                           	103.0000    	150.0000    	0.0300      	0.0000      	      
 2657                           	1413                           	1421                           	240.0000    	106.0000    	2.5000      	0.0000      	      
 2658                           	1                              	1675                           	210.0000    	102.0000    	3.5000      	0.0000      	      
 2659                           	1665                           	73                             	410.0000    	387.0000    	14.0000     	0.0000      	      
 2666                           	22                             	4                              	280.0000    	229.0000    	3.5000      	0.0000      	      
 2634                           	1477                           	1501                           	75.0000     	152.0000    	4.5000      	0.0000      	      
 2627                           	1520                           	1526                           	260.0000    	152.0000    	4.5000      	0.0000      	      
 2629                           	6                              	37                             	170.0000    	229.0000    	3.5000      	0.0000      	      
 2664                           	4                              	18                             	100.0000    	229.0000    	3.5000      	0.0000      	      
 2667                           	15                             	1676                           	1.0000      	500.0000    	0.0500      	0.0000      	      
 2668                           	1671                           	1619                           	190.0000    	102.0000    	3.0000      	0.0000      	      
 2663                           	1669                           	1670                           	140.0000    	310.0000    	3.5000      	0.0000      	      
 2693                           	1412                           	1396                           	160.0000    	152.0000    	3.0000      	0.0000      	      
 2690                           	25                             	36                             	320.0000    	152.0000    	3.5000      	0.0000      	      
 2691                           	26                             	1681                           	74.0000     	101.0000    	0.0300      	0.0000      	      
 2692                           	26                             	58                             	200.0000    	101.0000    	0.0300      	0.0000      	      
 2682                           	1680                           	52                             	220.0000    	152.0000    	3.5000      	0.0000      	      
 2721                           	1371                           	1413                           	210.0000    	106.0000    	2.5000      	0.0000      	      
 2696                           	29                             	62                             	375.0000    	159.0000    	0.0300      	0.0000      	      
 2697                           	1475                           	1510                           	440.0000    	106.0000    	2.5000      	0.0000      	      
 2694                           	1395                           	1347                           	340.0000    	159.0000    	2.5000      	0.0000      	      
 2695                           	1392                           	1395                           	170.0000    	106.0000    	2.5000      	0.0000      	      
 2698                           	1401                           	1415                           	230.0000    	102.0000    	3.0000      	0.0000      	      
 2700                           	1380                           	1397                           	50.0000     	152.0000    	4.0000      	0.0000      	      
 2653                           	26                             	27                             	128.0000    	101.0000    	0.0300      	0.0000      	      
 2734                           	1369                           	1384                           	470.0000    	106.0000    	2.2500      	0.0000      	      
 2705                           	18                             	28                             	120.0000    	229.0000    	3.5000      	0.0000      	      
 2735                           	1368                           	1361                           	1.0000      	300.0000    	0.1000      	0.0000      	      
 2685                           	1477                           	1468                           	200.0000    	102.0000    	4.5000      	0.0000      	      
 2686                           	1408                           	1459                           	500.0000    	236.0000    	2.0000      	0.0000      	      
 2670                           	1412                           	1439                           	400.0000    	152.0000    	3.0000      	0.0000      	      
 2672                           	1478                           	1496                           	290.0000    	152.0000    	4.5000      	0.0000      	      
 2680                           	1420                           	1443                           	170.0000    	102.0000    	3.0000      	0.0000      	      
 2687                           	1466                           	1518                           	480.0000    	159.0000    	2.5000      	0.0000      	      
 2689                           	1414                           	1424                           	330.0000    	152.0000    	4.5000      	0.0000      	      
 2728                           	1406                           	1426                           	160.0000    	159.0000    	2.5000      	0.0000      	      
 2729                           	1403                           	1455                           	550.0000    	106.0000    	2.0000      	0.0000      	      
 2730                           	1386                           	1392                           	120.0000    	106.0000    	2.5000      	0.0000      	      
 2723                           	1356                           	1360                           	210.0000    	159.0000    	2.5000      	0.0000      	      
 2724                           	1419                           	1389                           	250.0000    	102.0000    	4.0000      	0.0000      	      
 2726                           	1421                           	1475                           	460.0000    	106.0000    	2.5000      	0.0000      	      
 2780                           	1333                           	1328                           	280.0000    	102.0000    	3.5000      	0.0000      	      
 2731                           	1366                           	1486                           	500.0000    	300.0000    	0.3000      	0.0000      	      
 2746                           	1312                           	1307                           	270.0000    	152.0000    	4.0000      	0.0000      	      
 2717                           	1410                           	1406                           	290.0000    	159.0000    	2.5000      	0.0000      	      
 2732                           	1346                           	1371                           	400.0000    	159.0000    	2.5000      	0.0000      	      
 2703                           	1404                           	1462                           	200.0000    	397.0000    	0.8000      	0.0000      	      
 2738                           	1319                           	1283                           	210.0000    	106.0000    	2.0000      	0.0000      	      
 2747                           	1387                           	1388                           	130.0000    	102.0000    	4.0000      	0.0000      	      
 2739                           	1476                           	1490                           	159.0000    	229.0000    	3.5000      	0.0000      	      
 2744                           	1383                           	1385                           	80.0000     	152.0000    	3.0000      	0.0000      	      
 2713                           	1412                           	1435                           	170.0000    	152.0000    	3.0000      	0.0000      	      
 2715                           	1374                           	1320                           	390.0000    	152.0000    	4.5000      	0.0000      	      
 2716                           	1404                           	1436                           	180.0000    	310.0000    	3.5000      	0.0000      	      
 2708                           	1385                           	1420                           	300.0000    	102.0000    	3.0000      	0.0000      	      
 2709                           	1428                           	1442                           	310.0000    	152.0000    	4.5000      	0.0000      	      
 2745                           	1362                           	1350                           	270.0000    	102.0000    	4.0000      	0.0000      	      
 2710                           	1415                           	1420                           	210.0000    	102.0000    	3.0000      	0.0000      	      
 2770                           	1369                           	1354                           	370.0000    	310.0000    	15.5000     	0.0000      	      
 2766                           	1335                           	1385                           	200.0000    	102.0000    	3.0000      	0.0000      	      
 2767                           	1332                           	1353                           	210.0000    	106.0000    	2.2500      	0.0000      	      
 2778                           	1357                           	1369                           	90.0000     	310.0000    	15.5000     	0.0000      	      
 2779                           	1349                           	1313                           	250.0000    	106.0000    	2.0000      	0.0000      	      
 2761                           	1385                           	1401                           	240.0000    	152.0000    	3.5000      	0.0000      	      
 2762                           	1337                           	1361                           	119.0000    	310.0000    	15.0000     	0.0000      	      
 2749                           	1392                           	1352                           	250.0000    	106.0000    	2.5000      	0.0000      	      
 2774                           	1368                           	1402                           	170.0000    	310.0000    	15.0000     	0.0000      	      
 2764                           	1402                           	1407                           	1.0000      	300.0000    	0.1000      	0.0000      	      
 2768                           	1373                           	1374                           	110.0000    	229.0000    	1.0000      	0.0000      	      
 2758                           	1323                           	1373                           	370.0000    	229.0000    	1.0000      	0.0000      	      
 2718                           	1409                           	1445                           	200.0000    	310.0000    	3.5000      	0.0000      	      
 2760                           	1367                           	1416                           	220.0000    	152.0000    	4.5000      	0.0000      	      
 2771                           	1355                           	1345                           	300.0000    	152.0000    	4.0000      	0.0000      	      
 2772                           	1356                           	1358                           	1.0000      	152.0000    	4.5000      	0.0000      	      
 2750                           	1331                           	1343                           	380.0000    	152.0000    	4.0000      	0.0000      	      
 2755                           	1385                           	1415                           	240.0000    	152.0000    	3.5000      	0.0000      	      
 2756                           	1368                           	1308                           	530.0000    	310.0000    	15.0000     	0.0000      	      
 2752                           	1356                           	1302                           	370.0000    	236.0000    	1.0000      	0.0000      	      
 2753                           	1376                           	1404                           	330.0000    	397.0000    	1.5000      	0.0000      	      
 2754                           	1354                           	1402                           	150.0000    	310.0000    	5.5000      	0.0000      	      
 2845                           	1284                           	1340                           	340.0000    	106.0000    	2.2500      	0.0000      	      
 2846                           	1266                           	1245                           	110.0000    	152.0000    	4.0000      	0.0000      	      
 2825                           	1269                           	1270                           	1.0000      	300.0000    	0.1000      	0.0000      	      
 2789                           	1319                           	1351                           	350.0000    	106.0000    	2.0000      	0.0000      	      
 2817                           	1360                           	1352                           	220.0000    	159.0000    	2.5000      	0.0000      	      
 2816                           	1310                           	1273                           	270.0000    	102.0000    	3.0000      	0.0000      	      
 2815                           	1309                           	1337                           	280.0000    	102.0000    	3.0000      	0.0000      	      
 2799                           	1318                           	1336                           	240.0000    	152.0000    	4.0000      	0.0000      	      
 2785                           	1349                           	1403                           	430.0000    	106.0000    	2.0000      	0.0000      	      
 2776                           	1374                           	1367                           	160.0000    	152.0000    	4.5000      	0.0000      	      
 2748                           	1366                           	1268                           	910.0000    	319.0000    	2.2500      	0.0000      	      
 2822                           	1367                           	1359                           	200.0000    	152.0000    	4.5000      	0.0000      	      
 2781                           	1310                           	1337                           	140.0000    	310.0000    	15.0000     	0.0000      	      
 2823                           	1351                           	1408                           	390.0000    	236.0000    	2.0000      	0.0000      	      
 2787                           	1406                           	1344                           	320.0000    	159.0000    	2.5000      	0.0000      	      
 2788                           	1323                           	1304                           	100.0000    	229.0000    	1.0000      	0.0000      	      
 2786                           	1364                           	1311                           	390.0000    	152.0000    	4.5000      	0.0000      	      
 2800                           	1317                           	1312                           	130.0000    	152.0000    	4.0000      	0.0000      	      
 2801                           	1314                           	1348                           	440.0000    	106.0000    	2.2500      	0.0000      	      
 2797                           	1365                           	1311                           	340.0000    	152.0000    	4.5000      	0.0000      	      
 2795                           	1307                           	1759                           	250.0000    	102.0000    	4.0000      	0.0000      	      
 2809                           	1343                           	1341                           	110.0000    	464.0000    	4.5000      	0.0000      	      
 2810                           	1281                           	1313                           	280.0000    	106.0000    	2.0000      	0.0000      	      
 2805                           	1327                           	1805                           	240.0000    	236.0000    	2.0000      	0.0000      	      
 2806                           	1327                           	1557                           	600.0000    	288.0000    	0.3000      	0.0000      	      
 2775                           	1325                           	1410                           	479.0000    	152.0000    	5.0000      	0.0000      	      
 2807                           	1323                           	1320                           	80.0000     	152.0000    	4.5000      	0.0000      	      
 2843                           	1306                           	1256                           	160.0000    	102.0000    	4.0000      	0.0000      	      
 2844                           	1280                           	1297                           	270.0000    	152.0000    	4.0000      	0.0000      	      
 2811                           	1303                           	1339                           	210.0000    	101.0000    	0.0300      	0.0000      	      
 2808                           	1330                           	1335                           	70.0000     	102.0000    	3.0000      	0.0000      	      
 2792                           	1360                           	1386                           	230.0000    	106.0000    	2.5000      	0.0000      	      
 2793                           	1275                           	1801                           	310.0000    	152.0000    	8.0000      	0.0000      	      
 2794                           	1268                           	1805                           	420.0000    	319.0000    	2.2500      	0.0000      	      
 2831                           	1321                           	1367                           	330.0000    	102.0000    	4.5000      	0.0000      	      
 2832                           	1320                           	1321                           	170.0000    	152.0000    	4.5000      	0.0000      	      
 2834                           	1343                           	1363                           	190.0000    	152.0000    	4.0000      	0.0000      	      
 2859                           	1286                           	1298                           	99.0000     	110.0000    	0.0300      	0.0000      	      
 2802                           	1352                           	1395                           	250.0000    	106.0000    	2.5000      	0.0000      	      
 2835                           	1342                           	1338                           	1.0000      	300.0000    	0.1000      	0.0000      	      
 2820                           	1287                           	1380                           	349.0000    	152.0000    	4.0000      	0.0000      	      
 2828                           	1315                           	1280                           	230.0000    	102.0000    	3.5000      	0.0000      	      
 2827                           	1352                           	1347                           	130.0000    	159.0000    	2.5000      	0.0000      	      
 2830                           	1301                           	1277                           	160.0000    	152.0000    	4.0000      	0.0000      	      
 2860                           	1322                           	1359                           	270.0000    	102.0000    	4.5000      	0.0000      	      
 2848                           	1321                           	1322                           	170.0000    	152.0000    	4.5000      	0.0000      	      
 2849                           	1326                           	1319                           	140.0000    	159.0000    	2.0000      	0.0000      	      
 2850                           	1289                           	1260                           	260.0000    	229.0000    	15.0000     	0.0000      	      
 2814                           	1353                           	1340                           	320.0000    	106.0000    	2.2500      	0.0000      	      
 2863                           	1286                           	1272                           	84.0000     	110.0000    	0.0300      	0.0000      	      
 2839                           	1290                           	1259                           	270.0000    	152.0000    	4.0000      	0.0000      	      
 2906                           	1258                           	1309                           	250.0000    	102.0000    	3.0000      	0.0000      	      
 2923                           	1259                           	1784                           	180.0000    	152.0000    	4.0000      	0.0000      	      
 2898                           	1243                           	1312                           	220.0000    	152.0000    	4.0000      	0.0000      	      
 2899                           	1796                           	1795                           	1.0000      	152.0000    	4.0000      	0.0000      	      
 2880                           	1776                           	1754                           	290.0000    	319.0000    	2.2500      	0.0000      	      
 2853                           	1307                           	1300                           	170.0000    	152.0000    	4.0000      	0.0000      	      
 2829                           	1289                           	1350                           	320.0000    	102.0000    	4.0000      	0.0000      	      
 2897                           	1271                           	1280                           	140.0000    	152.0000    	4.0000      	0.0000      	      
 2871                           	1271                           	1295                           	120.0000    	102.0000    	4.0000      	0.0000      	      
 2855                           	1274                           	1404                           	980.0000    	310.0000    	8.5000      	0.0000      	      
 2842                           	1304                           	1296                           	400.0000    	152.0000    	4.0000      	0.0000      	      
 2841                           	1339                           	1333                           	140.0000    	102.0000    	3.5000      	0.0000      	      
 2840                           	1330                           	1396                           	540.0000    	152.0000    	3.0000      	0.0000      	      
 2851                           	1351                           	1349                           	120.0000    	106.0000    	2.0000      	0.0000      	      
 2838                           	1333                           	1315                           	70.0000     	102.0000    	3.5000      	0.0000      	      
 2826                           	1367                           	1398                           	90.0000     	152.0000    	4.5000      	0.0000      	      
 2837                           	1295                           	1315                           	130.0000    	102.0000    	3.5000      	0.0000      	      
 2836                           	1335                           	1396                           	380.0000    	102.0000    	3.0000      	0.0000      	      
 2887                           	1251                           	1246                           	93.0000     	110.0000    	0.0300      	0.0000      	      
 2869                           	1290                           	1293                           	210.0000    	102.0000    	4.0000      	0.0000      	      
 2878                           	1802                           	1261                           	90.0000     	152.0000    	4.0000      	0.0000      	      
 2854                           	1291                           	1289                           	280.0000    	152.0000    	4.0000      	0.0000      	      
 2879                           	1773                           	1300                           	200.0000    	102.0000    	4.0000      	0.0000      	      
 2867                           	1301                           	1304                           	270.0000    	229.0000    	1.0000      	0.0000      	      
 2864                           	1314                           	1348                           	560.0000    	106.0000    	2.2500      	0.0000      	      
 2865                           	1261                           	1259                           	160.0000    	152.0000    	4.0000      	0.0000      	      
 2866                           	1271                           	1263                           	140.0000    	152.0000    	4.0000      	0.0000      	      
 2870                           	1308                           	1325                           	1.0000      	150.0000    	0.0300      	0.0000      	      
 2908                           	356                            	388                            	230.0000    	152.0000    	3.5000      	0.0000      	      
 2893                           	1268                           	1327                           	580.0000    	159.0000    	2.0000      	0.0000      	      
 2894                           	1279                           	1284                           	220.0000    	106.0000    	2.2500      	0.0000      	      
 2868                           	1770                           	1792                           	80.0000     	152.0000    	4.0000      	0.0000      	      
 2877                           	1256                           	1249                           	220.0000    	102.0000    	4.0000      	0.0000      	      
 2895                           	1277                           	1806                           	220.0000    	152.0000    	4.0000      	0.0000      	      
 2936                           	1246                           	1785                           	80.0000     	110.0000    	0.0300      	0.0000      	      
 2873                           	1304                           	1266                           	240.0000    	229.0000    	1.0000      	0.0000      	      
 2890                           	1247                           	1303                           	240.0000    	101.0000    	0.0300      	0.0000      	      
 2881                           	1253                           	1797                           	73.0000     	110.0000    	0.0300      	0.0000      	      
 2876                           	1265                           	1796                           	190.0000    	236.0000    	1.0000      	0.0000      	      
 2934                           	1259                           	1381                           	510.0000    	152.0000    	4.0000      	0.0000      	      
 2889                           	1248                           	1282                           	137.0000    	152.0000    	5.0000      	0.0000      	      
 2875                           	1305                           	1301                           	189.0000    	229.0000    	1.0000      	0.0000      	      
 2892                           	1260                           	1803                           	90.0000     	229.0000    	15.0000     	0.0000      	      
 2884                           	1306                           	1256                           	160.0000    	102.0000    	4.0000      	0.0000      	      
 2885                           	1261                           	1290                           	130.0000    	152.0000    	4.0000      	0.0000      	      
 2886                           	1283                           	1281                           	100.0000    	106.0000    	2.0000      	0.0000      	      
 2900                           	1259                           	1783                           	180.0000    	152.0000    	4.0000      	0.0000      	      
 2910                           	1768                           	1743                           	80.0000     	152.0000    	4.0000      	0.0000      	      
 2872                           	1302                           	1305                           	1.0000      	200.0000    	0.1000      	0.0000      	      
 2921                           	1766                           	1710                           	240.0000    	152.0000    	4.0000      	0.0000      	      
 2905                           	1302                           	1265                           	220.0000    	159.0000    	10.0000     	0.0000      	      
 2940                           	1255                           	1250                           	220.0000    	152.0000    	4.0000      	0.0000      	      
 2862                           	1263                           	1303                           	180.0000    	102.0000    	3.5000      	0.0000      	      
 2925                           	1797                           	1791                           	50.0000     	110.0000    	0.0300      	0.0000      	      
 2901                           	1299                           	1306                           	190.0000    	152.0000    	3.5000      	0.0000      	      
 2931                           	1799                           	1248                           	1.0000      	152.0000    	5.0000      	0.0000      	      
 2937                           	1254                           	1314                           	300.0000    	106.0000    	2.2500      	0.0000      	      
 2938                           	590                            	643                            	100.0000    	310.0000    	20.0000     	0.0000      	      
 2882                           	1801                           	1794                           	260.0000    	102.0000    	8.0000      	0.0000      	      
 2922                           	1805                           	1776                           	240.0000    	319.0000    	2.2500      	0.0000      	      
 2932                           	1282                           	1286                           	82.0000     	110.0000    	0.0300      	0.0000      	      
 2916                           	1252                           	1310                           	240.0000    	310.0000    	15.0000     	0.0000      	      
 2912                           	1276                           	1272                           	85.0000     	110.0000    	0.0300      	0.0000      	      
 2909                           	378                            	376                            	210.0000    	102.0000    	3.0000      	0.0000      	      
 2913                           	1914                           	353                            	820.0000    	159.0000    	1.7500      	0.0000      	      
 2914                           	366                            	411                            	170.0000    	152.0000    	3.5000      	0.0000      	      
 2915                           	1264                           	1296                           	240.0000    	152.0000    	4.0000      	0.0000      	      
 2918                           	1269                           	1278                           	1.0000      	300.0000    	0.1000      	0.0000      	      
 2917                           	348                            	389                            	190.0000    	102.0000    	3.5000      	0.0000      	      
 2941                           	1250                           	1264                           	1.0000      	152.0000    	4.0000      	0.0000      	      
 2945                           	333                            	386                            	310.0000    	387.0000    	20.0000     	0.0000      	      
 2947                           	326                            	344                            	180.0000    	152.0000    	3.5000      	0.0000      	      
 2933                           	1281                           	1349                           	370.0000    	106.0000    	2.0000      	0.0000      	      
 2948                           	1039                           	1055                           	100.0000    	236.0000    	1.2500      	0.0000      	      
 2951                           	385                            	436                            	190.0000    	106.0000    	2.2500      	0.0000      	      
 2919                           	1255                           	1800                           	160.0000    	152.0000    	4.0000      	0.0000      	      
 2920                           	1254                           	1284                           	340.0000    	106.0000    	2.2500      	0.0000      	      
 2954                           	1040                           	1030                           	100.0000    	300.0000    	0.0500      	0.0000      	      
 2929                           	1915                           	353                            	1.0000      	159.0000    	1.0000      	0.0000      	      
 2942                           	1803                           	1802                           	520.0000    	152.0000    	4.0000      	0.0000      	      
 2966                           	959                            	976                            	270.0000    	102.0000    	3.5000      	0.0000      	      
 2911                           	1743                           	1738                           	220.0000    	102.0000    	4.0000      	0.0000      	      
 2978                           	1918                           	401                            	160.0000    	152.0000    	3.5000      	0.0000      	      
 2979                           	333                            	335                            	100.0000    	387.0000    	20.0000     	0.0000      	      
 2944                           	1781                           	1262                           	180.0000    	152.0000    	4.0000      	0.0000      	      
 2949                           	374                            	447                            	790.0000    	152.0000    	3.5000      	0.0000      	      
 2956                           	925                            	923                            	320.0000    	152.0000    	4.5000      	0.0000      	      
 2953                           	375                            	377                            	230.0000    	152.0000    	3.5000      	0.0000      	      
 2998                           	335                            	320                            	860.0000    	387.0000    	20.0000     	0.0000      	      
 2927                           	391                            	417                            	150.0000    	464.0000    	5.2000      	0.0000      	      
 2961                           	1007                           	1022                           	390.0000    	152.0000    	2.0000      	0.0000      	      
 2964                           	965                            	969                            	350.0000    	152.0000    	2.0000      	0.0000      	      
 2965                           	1018                           	1046                           	220.0000    	152.0000    	3.0000      	0.0000      	      
 2969                           	377                            	378                            	190.0000    	152.0000    	3.5000      	0.0000      	      
 2926                           	394                            	361                            	1111.0000   	146.0000    	0.0500      	0.0000      	      
 2960                           	950                            	973                            	310.0000    	262.0000    	2.5000      	0.0000      	      
 2970                           	397                            	390                            	180.0000    	152.0000    	3.5000      	0.0000      	      
 2957                           	962                            	985                            	360.0000    	146.0000    	0.0300      	0.0000      	      
 2972                           	371                            	405                            	170.0000    	152.0000    	3.2000      	0.0000      	      
 2968                           	363                            	350                            	180.0000    	102.0000    	3.0000      	0.0000      	      
 2975                           	1665                           	73                             	410.0000    	474.0000    	2.0000      	0.0000      	      
 3003                           	1651                           	4                              	190.0000    	229.0000    	3.5000      	0.0000      	      
 3017                           	1002                           	1039                           	100.0000    	236.0000    	2.5000      	0.0000      	      
 3018                           	1656                           	23                             	549.0000    	296.0000    	0.3000      	0.0000      	      
 2971                           	378                            	418                            	500.0000    	152.0000    	3.0000      	0.0000      	      
 2973                           	959                            	934                            	450.0000    	152.0000    	3.5000      	0.0000      	      
 3019                           	400                            	314                            	264.0000    	491.0000    	0.5000      	0.0000      	      
 2987                           	322                            	1915                           	400.0000    	102.0000    	3.5000      	0.0000      	      
 2988                           	1013                           	1023                           	55.0000     	319.0000    	3.5000      	0.0000      	      
 2986                           	1916                           	358                            	1.0000      	229.0000    	0.1000      	0.0000      	      
 3016                           	1621                           	1672                           	240.0000    	387.0000    	20.0000     	0.0000      	      
 3015                           	1627                           	2                              	280.0000    	152.0000    	3.5000      	0.0000      	      
 3043                           	365                            	383                            	170.0000    	152.0000    	3.5000      	0.0000      	      
 2992                           	414                            	413                            	180.0000    	106.0000    	2.5000      	0.0000      	      
 3044                           	379                            	382                            	120.0000    	152.0000    	3.5000      	0.0000      	      
 2990                           	1006                           	972                            	430.0000    	102.0000    	3.5000      	0.0000      	      
 3001                           	1642                           	10                             	240.0000    	152.0000    	3.5000      	0.0000      	      
 3002                           	1046                           	1086                           	490.0000    	152.0000    	3.5000      	0.0000      	      
 3000                           	1650                           	1648                           	1.0000      	150.0000    	0.0300      	0.0000      	      
 2985                           	415                            	446                            	160.0000    	159.0000    	2.5000      	0.0000      	      
 3010                           	978                            	963                            	130.0000    	152.0000    	3.2000      	0.0000      	      
 3013                           	320                            	366                            	390.0000    	152.0000    	3.5000      	0.0000      	      
 2980                           	1040                           	1021                           	120.4500    	361.0000    	9.5000      	0.0000      	      
 3009                           	388                            	387                            	180.0000    	152.0000    	3.5000      	0.0000      	      
 2993                           	1920                           	408                            	130.0000    	152.0000    	3.0000      	0.0000      	      
 3011                           	348                            	349                            	180.0000    	102.0000    	3.5000      	0.0000      	      
 2984                           	416                            	444                            	440.0000    	159.0000    	2.5000      	0.0000      	      
 3006                           	1651                           	1657                           	190.0000    	102.0000    	3.5000      	0.0000      	      
 3007                           	1641                           	1666                           	207.0000    	152.0000    	3.7000      	0.0000      	      
 3008                           	426                            	427                            	220.0000    	152.0000    	3.5000      	0.0000      	      
 2999                           	1008                           	1006                           	130.0000    	152.0000    	2.0000      	0.0000      	      
 2981                           	1040                           	1064                           	50.0000     	361.0000    	9.5000      	0.0000      	      
 2982                           	378                            	331                            	320.0000    	102.0000    	3.5000      	0.0000      	      
 3027                           	59                             	54                             	120.0000    	152.0000    	3.5000      	0.0000      	      
 3028                           	351                            	361                            	20.0000     	144.0000    	0.0300      	0.0000      	      
 3054                           	1647                           	1651                           	70.0000     	102.0000    	3.5000      	0.0000      	      
 3041                           	419                            	1936                           	390.0000    	152.0000    	3.0000      	0.0000      	      
 3023                           	383                            	1920                           	120.0000    	152.0000    	3.5000      	0.0000      	      
 3049                           	364                            	369                            	1.0000      	150.0000    	0.0300      	0.0000      	      
 3050                           	1670                           	1686                           	320.0000    	310.0000    	3.5000      	0.0000      	      
 3051                           	24                             	53                             	46.0000     	152.0000    	3.7000      	0.0000      	      
 3056                           	1687                           	27                             	238.0000    	150.0000    	0.0300      	0.0000      	      
 3046                           	402                            	443                            	970.0000    	288.0000    	0.1000      	0.0000      	      
 3012                           	405                            	406                            	210.0000    	152.0000    	3.2000      	0.0000      	      
 3014                           	333                            	312                            	1.0000      	102.0000    	0.0500      	0.0000      	      
 3045                           	317                            	302                            	170.0000    	102.0000    	3.5000      	0.0000      	      
 3040                           	1646                           	28                             	280.0000    	152.0000    	3.5000      	0.0000      	      
 3076                           	419                            	376                            	230.0000    	102.0000    	3.0000      	0.0000      	      
 3077                           	1486                           	1564                           	250.0000    	300.0000    	0.3000      	0.0000      	      
 3053                           	5                              	1620                           	330.0000    	152.0000    	3.0000      	0.0000      	      
 3079                           	1683                           	88                             	320.0000    	152.0000    	3.5000      	0.0000      	      
 3052                           	1647                           	1653                           	200.0000    	102.0000    	3.5000      	0.0000      	      
 3025                           	1077                           	1093                           	180.0000    	102.0000    	3.0000      	0.0000      	      
 3080                           	24                             	1666                           	180.0000    	152.0000    	3.7000      	0.0000      	      
 3098                           	12                             	8                              	320.0000    	229.0000    	3.5000      	0.0000      	      
 3026                           	15                             	1665                           	2000.0000   	387.0000    	3.0000      	0.0000      	      
 3030                           	3                              	8                              	120.0000    	229.0000    	3.5000      	0.0000      	      
 3058                           	393                            	1918                           	260.0000    	152.0000    	3.5000      	0.0000      	      
 3102                           	1853                           	1869                           	5.0000      	229.0000    	15.0000     	0.0000      	      
 3034                           	1668                           	35                             	300.0000    	310.0000    	3.5000      	0.0000      	      
 3036                           	357                            	328                            	210.0000    	152.0000    	3.5000      	0.0000      	      
 3037                           	61                             	87                             	330.0000    	387.0000    	20.5000     	0.0000      	      
 3020                           	1682                           	44                             	250.0000    	152.0000    	3.5000      	0.0000      	      
 3022                           	416                            	414                            	260.0000    	106.0000    	2.5000      	0.0000      	      
 3091                           	1687                           	27                             	288.0000    	101.0000    	0.0300      	0.0000      	      
 3042                           	11                             	77                             	440.0000    	152.0000    	3.5000      	0.0000      	      
 3094                           	16                             	29                             	228.0000    	159.0000    	0.0300      	0.0000      	      
 3057                           	429                            	430                            	180.0000    	152.0000    	3.5000      	0.0000      	      
 3097                           	430                            	426                            	190.0000    	152.0000    	3.5000      	0.0000      	      
 3075                           	1055                           	992                            	320.0000    	152.0000    	3.2000      	0.0000      	      
 3078                           	1546                           	1598                           	410.0000    	229.0000    	3.7000      	0.0000      	      
 3033                           	366                            	411                            	170.0000    	310.0000    	20.0000     	0.0000      	      
 3064                           	1411                           	1435                           	230.0000    	229.0000    	3.0000      	0.0000      	      
 3069                           	1811                           	1835                           	360.0000    	229.0000    	1.0000      	0.0000      	      
 3099                           	1846                           	1878                           	240.0000    	97.0000     	0.3000      	0.0000      	      
 3067                           	2047                           	2017                           	1.0000      	300.0000    	0.1000      	0.0000      	      
 3070                           	1852                           	1853                           	160.0000    	152.0000    	8.0000      	0.0000      	      
 3095                           	1055                           	1053                           	560.0000    	236.0000    	10.0000     	0.0000      	      
 3104                           	1863                           	1864                           	80.0000     	152.0000    	4.0000      	0.0000      	      
 3071                           	1880                           	1878                           	160.0000    	144.0000    	0.3000      	0.0000      	      
 3072                           	414                            	444                            	170.0000    	106.0000    	2.5000      	0.0000      	      
 3073                           	1864                           	1885                           	270.0000    	102.0000    	4.0000      	0.0000      	      
 3062                           	1875                           	1736                           	330.0000    	152.0000    	8.0000      	0.0000      	      
 3063                           	1670                           	6                              	1.0000      	102.0000    	0.0500      	0.0000      	      
 3029                           	1913                           	330                            	90.0000     	102.0000    	3.2000      	0.0000      	      
 3106                           	1858                           	1856                           	173.0000    	101.0000    	0.0300      	0.0000      	      
 3103                           	1850                           	1708                           	150.0000    	152.0000    	4.0000      	0.0000      	      
 3061                           	406                            	1917                           	260.0000    	152.0000    	3.2000      	0.0000      	      
 3059                           	427                            	420                            	180.0000    	152.0000    	3.5000      	0.0000      	      
 3060                           	1922                           	429                            	180.0000    	152.0000    	3.5000      	0.0000      	      
 3088                           	1686                           	100                            	380.0000    	310.0000    	12.5000     	0.0000      	      
 3083                           	1523                           	1581                           	240.0000    	229.0000    	3.5000      	0.0000      	      
 3084                           	16                             	1690                           	50.0000     	159.0000    	0.0300      	0.0000      	      
 3085                           	1524                           	1462                           	350.0000    	310.0000    	12.5000     	0.0000      	      
 3086                           	1074                           	1095                           	120.0000    	152.0000    	3.0000      	0.0000      	      
 3087                           	1536                           	1571                           	310.0000    	102.0000    	3.5000      	0.0000      	      
 3081                           	1544                           	1592                           	210.0000    	229.0000    	3.5000      	0.0000      	      
 3112                           	2034                           	2035                           	170.0000    	152.0000    	4.0000      	0.0000      	      
 3125                           	2034                           	1816                           	400.0000    	152.0000    	5.0000      	0.0000      	      
 3135                           	1881                           	1877                           	210.0000    	152.0000    	8.0000      	0.0000      	      
 3130                           	2039                           	1828                           	190.0000    	152.0000    	4.0000      	0.0000      	      
 3132                           	2042                           	2046                           	240.0000    	159.0000    	0.3700      	0.0000      	      
 3133                           	2041                           	1835                           	90.0000     	229.0000    	1.0000      	0.0000      	      
 4177                           	1092                           	1084                           	1.0000      	1000.0000   	0.2000      	0.0000      	CV    
 3128                           	1834                           	2021                           	240.0000    	152.0000    	8.0000      	0.0000      	      
 3167                           	1876                           	1831                           	170.0000    	152.0000    	4.0000      	0.0000      	      
 3157                           	1117                           	680                            	65.0000     	110.0000    	0.0300      	0.0000      	      
 3138                           	2012                           	1995                           	77.0000     	195.0000    	0.1000      	0.0000      	      
 3165                           	2041                           	2019                           	209.0000    	229.0000    	1.0000      	0.0000      	      
 3137                           	2024                           	2034                           	130.0000    	387.0000    	3.5000      	0.0000      	      
 3136                           	2028                           	2027                           	1.0000      	300.0000    	0.1000      	0.0000      	      
 3031                           	411                            	409                            	1.0000      	300.0000    	0.1000      	0.0000      	      
 3114                           	2023                           	2018                           	110.0000    	152.0000    	8.0000      	0.0000      	      
 3152                           	1989                           	1991                           	1.0000      	150.0000    	0.0300      	0.0000      	      
 3090                           	453                            	417                            	150.0000    	464.0000    	5.2000      	0.0000      	      
 3116                           	1840                           	1841                           	70.0000     	152.0000    	4.0000      	0.0000      	      
 3117                           	1878                           	1836                           	370.0000    	144.0000    	0.3000      	0.0000      	      
 3118                           	1842                           	1874                           	160.0000    	102.0000    	4.0000      	0.0000      	      
 3119                           	1874                           	1821                           	100.0000    	152.0000    	4.0000      	0.0000      	      
 3120                           	1879                           	1857                           	150.0000    	387.0000    	30.0000     	0.0000      	      
 3110                           	2029                           	2026                           	190.0000    	152.0000    	5.0000      	0.0000      	      
 3111                           	1832                           	1816                           	190.0000    	152.0000    	5.0000      	0.0000      	      
 3109                           	1836                           	2038                           	340.0000    	229.0000    	15.0000     	0.0000      	      
 3113                           	2032                           	1699                           	520.0000    	152.0000    	4.0000      	0.0000      	      
 3107                           	1876                           	1721                           	380.0000    	102.0000    	4.0000      	0.0000      	      
 3115                           	1571                           	1583                           	180.0000    	102.0000    	3.5000      	0.0000      	      
 3126                           	1853                           	1836                           	170.0000    	229.0000    	15.0000     	0.0000      	      
 3139                           	2025                           	1860                           	380.0000    	229.0000    	1.0000      	0.0000      	      
 3100                           	10                             	20                             	120.0000    	152.0000    	3.5000      	0.0000      	      
 3155                           	2009                           	2033                           	200.0000    	102.0000    	5.0000      	0.0000      	      
 3156                           	2018                           	2014                           	160.0000    	152.0000    	8.0000      	0.0000      	      
 3163                           	2043                           	2039                           	160.0000    	102.0000    	4.0000      	0.0000      	      
 3164                           	2014                           	2006                           	240.0000    	152.0000    	8.0000      	0.0000      	      
 3142                           	2026                           	1886                           	160.0000    	152.0000    	4.0000      	0.0000      	      
 3151                           	1848                           	1843                           	150.0000    	152.0000    	4.0000      	0.0000      	      
 3182                           	2028                           	2046                           	240.0000    	319.0000    	0.3700      	0.0000      	      
 3177                           	2010                           	2012                           	171.0000    	152.0000    	5.0000      	0.0000      	      
 3145                           	1886                           	2039                           	220.0000    	152.0000    	4.0000      	0.0000      	      
 3160                           	2015                           	1989                           	180.0000    	152.0000    	4.0000      	0.0000      	      
 3206                           	1210                           	1138                           	200.0000    	144.0000    	0.3000      	0.0000      	      
 3173                           	2011                           	2044                           	220.0000    	152.0000    	5.0000      	0.0000      	      
 3175                           	2040                           	1876                           	190.0000    	152.0000    	5.0000      	0.0000      	      
 3108                           	1807                           	1709                           	150.0000    	159.0000    	0.3700      	0.0000      	      
 3158                           	1981                           	1980                           	60.0000     	152.0000    	3.5000      	0.0000      	      
 3153                           	2032                           	2008                           	190.0000    	152.0000    	5.0000      	0.0000      	      
 3140                           	2027                           	2024                           	219.0000    	319.0000    	0.3700      	0.0000      	      
 3171                           	1996                           	2002                           	1.0000      	150.0000    	4.0000      	0.0000      	      
 3202                           	2002                           	2016                           	420.0000    	152.0000    	4.0000      	0.0000      	      
 3101                           	1808                           	1857                           	110.0000    	387.0000    	30.0000     	0.0000      	      
 3199                           	1997                           	2024                           	150.0000    	387.0000    	3.5000      	0.0000      	      
 3141                           	1998                           	1986                           	440.0000    	102.0000    	0.4000      	0.0000      	      
 3161                           	1995                           	1992                           	63.0000     	97.0000     	0.0300      	0.0000      	      
 3162                           	2015                           	2019                           	1.0000      	200.0000    	0.1000      	0.0000      	      
 3148                           	2012                           	2013                           	18.0000     	152.0000    	5.0000      	0.0000      	      
 3146                           	2007                           	1996                           	100.0000    	464.0000    	25.0000     	0.0000      	      
 3150                           	2042                           	1832                           	110.0000    	310.0000    	15.0000     	0.0000      	      
 3149                           	1999                           	1997                           	169.0000    	229.0000    	5.0000      	0.0000      	      
 3143                           	1886                           	1882                           	110.0000    	152.0000    	4.0000      	0.0000      	      
 3170                           	2033                           	2044                           	180.0000    	152.0000    	5.0000      	0.0000      	      
 3196                           	1983                           	1978                           	174.0000    	150.0000    	0.0300      	0.0000      	      
 3179                           	2026                           	2043                           	210.0000    	102.0000    	4.0000      	0.0000      	      
 3212                           	1995                           	2001                           	166.0000    	97.0000     	0.0300      	0.0000      	      
 3185                           	2033                           	1698                           	520.0000    	152.0000    	4.0000      	0.0000      	      
 3214                           	1995                           	1987                           	58.0000     	221.0000    	0.1000      	0.0000      	      
 3207                           	1998                           	2023                           	260.0000    	102.0000    	7.0000      	0.0000      	      
 3209                           	2038                           	1980                           	360.0000    	310.0000    	3.5000      	0.0000      	      
 3203                           	1987                           	1988                           	68.0000     	221.0000    	0.1000      	0.0000      	      
 3204                           	1985                           	1882                           	630.0000    	152.0000    	4.0000      	0.0000      	      
 3192                           	2014                           	2003                           	80.0000     	102.0000    	7.0000      	0.0000      	      
 3213                           	1148                           	1151                           	120.0000    	296.0000    	21.0000     	0.0000      	      
 3181                           	1980                           	1990                           	190.0000    	152.0000    	8.0000      	0.0000      	      
 3180                           	2032                           	1841                           	370.0000    	152.0000    	4.0000      	0.0000      	      
 3245                           	2006                           	1981                           	170.0000    	152.0000    	8.0000      	0.0000      	      
 3201                           	1981                           	1980                           	60.0000     	310.0000    	3.5000      	0.0000      	      
 3176                           	2028                           	2000                           	180.0000    	229.0000    	5.0000      	0.0000      	      
 3227                           	1997                           	2035                           	720.0000    	387.0000    	3.5000      	0.0000      	      
 3191                           	2047                           	2036                           	160.0000    	152.0000    	0.3000      	0.0000      	      
 3195                           	2031                           	1838                           	380.0000    	152.0000    	4.0000      	0.0000      	      
 3234                           	1154                           	1149                           	270.0000    	102.0000    	3.2000      	0.0000      	      
 3228                           	1105                           	1148                           	250.0000    	296.0000    	21.0000     	0.0000      	      
 3247                           	1986                           	1977                           	400.0000    	152.0000    	7.0000      	0.0000      	      
 3229                           	1104                           	1109                           	440.0000    	102.0000    	3.0000      	0.0000      	      
 3187                           	1877                           	2010                           	290.0000    	152.0000    	5.0000      	0.0000      	      
 3188                           	1996                           	2005                           	1.0000      	200.0000    	0.0500      	0.0000      	      
 3189                           	1981                           	1977                           	160.0000    	310.0000    	3.5000      	0.0000      	      
 3190                           	1981                           	1977                           	160.0000    	310.0000    	3.5000      	0.0000      	      
 3184                           	2028                           	1847                           	400.0000    	152.0000    	4.0000      	0.0000      	      
 3244                           	3002                           	1107                           	2.0000      	765.0000    	0.3000      	0.0000      	      
 3219                           	2003                           	1986                           	170.0000    	296.0000    	0.3000      	0.0000      	      
 3197                           	1988                           	1982                           	92.0000     	110.0000    	0.0300      	0.0000      	      
 3221                           	2006                           	2038                           	310.0000    	229.0000    	8.0000      	0.0000      	      
 3222                           	1178                           	1179                           	180.0000    	152.0000    	20.0000     	0.0000      	      
 3224                           	520                            	1229                           	79.0000     	314.0000    	0.1000      	0.0000      	      
 3225                           	303                            	546                            	270.0000    	106.0000    	2.2500      	0.0000      	      
 3208                           	2013                           	2011                           	210.0000    	152.0000    	5.0000      	0.0000      	      
 3231                           	3002                           	1084                           	2.0000      	765.0000    	0.3000      	0.0000      	      
 3226                           	1210                           	370                            	250.0000    	159.0000    	2.0000      	0.0000      	      
 3241                           	1977                           	1975                           	120.0000    	310.0000    	3.5000      	0.0000      	      
 3242                           	1140                           	1164                           	270.0000    	236.0000    	6.2500      	0.0000      	      
 3215                           	2011                           	2009                           	180.0000    	152.0000    	5.0000      	0.0000      	      
 3218                           	2005                           	2025                           	189.0000    	229.0000    	1.0000      	0.0000      	      
 3248                           	2000                           	1999                           	1.0000      	200.0000    	0.1000      	0.0000      	      
 3249                           	502                            	1206                           	110.0000    	319.0000    	2.0000      	0.0000      	      
 3211                           	186                            	5555                           	1011.5000   	400.0000    	0.1000      	0.0000      	      
 2240                           	120                            	41                             	505.5000    	500.0000    	0.1000      	0.0000      	      
 3193                           	2030                           	1840                           	370.0000    	152.0000    	4.0000      	0.0000      	      
 3240                           	2004                           	2030                           	180.0000    	152.0000    	5.0000      	0.0000      	      
 3284                           	268                            	1124                           	210.0000    	106.0000    	2.2500      	0.0000      	      
 3280                           	1100                           	246                            	220.0000    	229.0000    	3.0000      	0.0000      	      
 3257                           	1142                           	1143                           	240.0000    	102.0000    	3.0000      	0.0000      	      
 3259                           	768                            	1190                           	236.0000    	319.0000    	21.0000     	0.0000      	      
 3237                           	792                            	1210                           	160.0000    	236.0000    	2.0000      	0.0000      	      
 3261                           	766                            	1149                           	160.0000    	102.0000    	3.2000      	0.0000      	      
 3258                           	1182                           	337                            	56.0000     	296.0000    	2.3000      	0.0000      	      
 3220                           	2030                           	1839                           	370.0000    	152.0000    	4.0000      	0.0000      	      
 3255                           	1990                           	1994                           	170.0000    	152.0000    	8.0000      	0.0000      	      
 3290                           	1153                           	1116                           	200.0000    	106.0000    	2.2500      	0.0000      	      
 3314                           	28                             	34                             	80.0000     	229.0000    	3.5000      	0.0000      	      
 3318                           	1112                           	751                            	170.0000    	152.0000    	20.0000     	0.0000      	      
 3311                           	434                            	460                            	220.0000    	102.0000    	3.0000      	0.0000      	      
 3312                           	91                             	46                             	110.0000    	102.0000    	3.0000      	0.0000      	      
 3313                           	40                             	114                            	630.0000    	229.0000    	3.0000      	0.0000      	      
 3276                           	1157                           	1158                           	410.0000    	102.0000    	3.0000      	0.0000      	      
 3194                           	1987                           	1983                           	22.0000     	159.0000    	0.0300      	0.0000      	      
 3274                           	1136                           	502                            	340.0000    	319.0000    	2.0000      	0.0000      	      
 3283                           	296                            	792                            	280.0000    	236.0000    	2.0000      	0.0000      	      
 3272                           	1976                           	3003                           	1260.0000   	474.0000    	4.5000      	0.0000      	      
 3262                           	1124                           	1103                           	180.0000    	106.0000    	2.2500      	0.0000      	      
 3263                           	1115                           	1182                           	309.0000    	296.0000    	2.3000      	0.0000      	      
 3264                           	1150                           	1141                           	230.0000    	102.0000    	3.5000      	0.0000      	      
 3267                           	1109                           	1142                           	250.0000    	102.0000    	3.0000      	0.0000      	      
 3327                           	444                            	462                            	120.0000    	106.0000    	2.5000      	0.0000      	      
 3296                           	1154                           	1173                           	520.0000    	152.0000    	20.0000     	0.0000      	      
 3301                           	1140                           	303                            	280.0000    	106.0000    	2.2500      	0.0000      	      
 3328                           	13                             	5                              	170.0000    	152.0000    	3.0000      	0.0000      	      
 3329                           	1547                           	1574                           	229.0000    	152.0000    	4.5000      	0.0000      	      
 3330                           	1515                           	1516                           	210.0000    	102.0000    	3.5000      	0.0000      	      
 3348                           	598                            	778                            	250.0000    	236.0000    	6.2500      	0.0000      	      
 3349                           	662                            	690                            	220.0000    	102.0000    	3.5000      	0.0000      	      
 3320                           	1522                           	1432                           	982.0000    	391.0000    	0.5000      	0.0000      	      
 3321                           	1685                           	97                             	340.0000    	229.0000    	3.5000      	0.0000      	      
 3319                           	1528                           	1524                           	227.0000    	319.0000    	2.2500      	0.0000      	      
 3331                           	761                            	1966                           	104.0000    	296.0000    	0.3000      	0.0000      	      
 3332                           	708                            	712                            	210.0000    	102.0000    	3.5000      	0.0000      	      
 3322                           	1516                           	1517                           	190.0000    	102.0000    	3.5000      	0.0000      	      
 3323                           	392                            	397                            	200.0000    	152.0000    	3.5000      	0.0000      	      
 3295                           	405                            	440                            	220.0000    	152.0000    	3.5000      	0.0000      	      
 3302                           	1125                           	1143                           	160.0000    	102.0000    	3.0000      	0.0000      	      
 3309                           	30                             	22                             	129.0000    	229.0000    	3.5000      	0.0000      	      
 3268                           	1689                           	1691                           	200.0000    	102.0000    	3.5000      	0.0000      	      
 3306                           	618                            	1110                           	160.0000    	106.0000    	2.2500      	0.0000      	      
 3397                           	783                            	1170                           	140.0000    	152.0000    	3.0000      	0.0000      	      
 3374                           	587                            	1186                           	190.0000    	144.0000    	0.3000      	0.0000      	      
 3378                           	325                            	1189                           	55.0000     	102.0000    	3.0000      	0.0000      	      
 3345                           	1967                           	1964                           	150.0000    	152.0000    	0.5000      	0.0000      	      
 3343                           	724                            	1960                           	180.0000    	152.0000    	3.5000      	0.0000      	      
 3344                           	871                            	905                            	253.0000    	150.0000    	0.0300      	0.0000      	      
 3324                           	382                            	383                            	250.0000    	152.0000    	3.5000      	0.0000      	      
 3351                           	1954                           	716                            	280.0000    	152.0000    	3.0000      	0.0000      	      
 3354                           	885                            	868                            	210.0000    	106.0000    	2.2500      	0.0000      	      
 3369                           	350                            	291                            	320.0000    	103.0000    	3.0000      	0.0000      	      
 3371                           	1214                           	180                            	300.0000    	97.0000     	0.0300      	0.0000      	      
 3376                           	1162                           	157                            	370.0000    	152.0000    	3.0000      	0.0000      	      
 3337                           	717                            	1955                           	1.0000      	152.0000    	3.5000      	0.0000      	      
 3370                           	180                            	189                            	200.0000    	106.0000    	2.0000      	0.0000      	      
 3336                           	1221                           	1233                           	920.0000    	361.0000    	9.5000      	0.0000      	      
 3340                           	1969                           	837                            	440.0000    	144.0000    	0.1000      	0.0000      	      
 3341                           	786                            	798                            	210.0000    	102.0000    	3.0000      	0.0000      	      
 3325                           	423                            	1921                           	80.0000     	102.0000    	3.0000      	0.0000      	      
 3308                           	900                            	895                            	400.0000    	229.0000    	2.5000      	0.0000      	      
 3394                           	1186                           	1138                           	400.0000    	159.0000    	2.0000      	0.0000      	      
 3310                           	34                             	1664                           	300.0000    	152.0000    	3.5000      	0.0000      	      
 3361                           	551                            	1221                           	390.0000    	361.0000    	9.5000      	0.0000      	      
 3362                           	715                            	135                            	370.0000    	229.0000    	3.5000      	0.0000      	      
 3363                           	739                            	597                            	155.0000    	314.0000    	0.1000      	0.0000      	      
 3364                           	1227                           	1232                           	270.0000    	102.0000    	3.0000      	0.0000      	      
 3365                           	819                            	858                            	340.0000    	106.0000    	2.2500      	0.0000      	      
 3368                           	243                            	284                            	140.0000    	152.0000    	3.5000      	0.0000      	      
 3407                           	611                            	1236                           	260.0000    	106.0000    	2.0000      	0.0000      	      
 3373                           	1237                           	639                            	180.0000    	152.0000    	3.0000      	0.0000      	      
 3382                           	1944                           	1945                           	150.0000    	159.0000    	2.0000      	0.0000      	      
 3383                           	755                            	785                            	340.0000    	152.0000    	4.5000      	0.0000      	      
 3384                           	738                            	742                            	200.0000    	102.0000    	10.0000     	0.0000      	      
 3385                           	1156                           	638                            	260.0000    	159.0000    	0.5000      	0.0000      	      
 3386                           	725                            	774                            	230.0000    	152.0000    	3.5000      	0.0000      	      
 3333                           	876                            	877                            	220.0000    	106.0000    	2.2500      	0.0000      	      
 3380                           	1239                           	1188                           	220.0000    	102.0000    	3.0000      	0.0000      	      
 3381                           	485                            	493                            	120.0000    	152.0000    	3.0000      	0.0000      	      
 3358                           	597                            	1204                           	120.0000    	159.0000    	2.0000      	0.0000      	      
 3395                           	1159                           	1208                           	55.0000     	319.0000    	21.0000     	0.0000      	      
 3360                           	1946                           	590                            	99.0000     	310.0000    	20.0000     	0.0000      	      
 3400                           	639                            	1228                           	240.0000    	152.0000    	3.0000      	0.0000      	      
 3390                           	561                            	575                            	140.0000    	152.0000    	3.0000      	0.0000      	      
 3391                           	573                            	606                            	150.0000    	106.0000    	2.0000      	0.0000      	      
 3377                           	555                            	1199                           	340.0000    	102.0000    	3.0000      	0.0000      	      
 3389                           	585                            	522                            	310.0000    	152.0000    	3.0000      	0.0000      	      
 3359                           	1194                           	1202                           	200.0000    	152.0000    	3.0000      	0.0000      	      
 3396                           	167                            	1209                           	280.0000    	106.0000    	2.0000      	0.0000      	      
 3433                           	459                            	1924                           	90.0000     	229.0000    	3.5000      	0.0000      	      
 3429                           	447                            	1925                           	1.0000      	152.0000    	0.0500      	0.0000      	      
 3448                           	462                            	508                            	130.0000    	106.0000    	2.5000      	0.0000      	      
 3431                           	439                            	436                            	180.0000    	106.0000    	2.2500      	0.0000      	      
 3447                           	488                            	1942                           	499.0000    	474.0000    	3.5000      	0.0000      	      
 3379                           	1206                           	723                            	100.0000    	319.0000    	2.0000      	0.0000      	      
 3435                           	463                            	462                            	250.0000    	159.0000    	2.5000      	0.0000      	      
 3403                           	1169                           	597                            	160.0000    	236.0000    	6.0000      	0.0000      	      
 3404                           	1923                           	476                            	140.0000    	102.0000    	3.5000      	0.0000      	      
 3405                           	594                            	583                            	76.0000     	101.0000    	0.0300      	0.0000      	      
 3408                           	135                            	1098                           	149.0000    	229.0000    	3.5000      	0.0000      	      
 3413                           	583                            	584                            	60.0000     	101.0000    	0.0300      	0.0000      	      
 3398                           	638                            	1213                           	590.0000    	152.0000    	3.0000      	0.0000      	      
 3399                           	605                            	1946                           	1.0000      	300.0000    	0.1000      	0.0000      	      
 3357                           	1160                           	1078                           	430.0000    	102.0000    	3.0000      	0.0000      	      
 3401                           	1163                           	638                            	210.0000    	159.0000    	0.5000      	0.0000      	      
 3438                           	1925                           	443                            	90.0000     	474.0000    	2.0000      	0.0000      	      
 3439                           	578                            	591                            	1.0000      	150.0000    	0.0300      	0.0000      	      
 3444                           	476                            	473                            	129.0000    	152.0000    	3.5000      	0.0000      	      
 3441                           	567                            	566                            	180.0000    	152.0000    	3.0000      	0.0000      	      
 3443                           	542                            	576                            	1.0000      	540.0000    	2.5000      	0.0000      	      
 3476                           	478                            	1925                           	1.0000      	474.0000    	3.5000      	0.0000      	      
 5184                           	1936                           	590                            	600.0000    	152.0000    	3.0000      	0.0000      	      
 3481                           	314                            	306                            	1.0000      	300.0000    	0.1000      	0.0000      	      
 3482                           	299                            	291                            	220.0000    	152.0000    	3.0000      	0.0000      	      
 3475                           	324                            	319                            	240.0000    	229.0000    	3.5000      	0.0000      	      
 3477                           	321                            	310                            	1.0000      	300.0000    	0.1000      	0.0000      	      
 3478                           	1910                           	343                            	100.0000    	106.0000    	1.7500      	0.0000      	      
 3455                           	523                            	498                            	160.0000    	144.0000    	0.3000      	0.0000      	      
 3421                           	564                            	568                            	180.0000    	102.0000    	3.5000      	0.0000      	      
 3423                           	396                            	389                            	290.0000    	152.0000    	3.5000      	0.0000      	      
 3424                           	1204                           	1222                           	260.0000    	159.0000    	2.0000      	0.0000      	      
 3416                           	436                            	433                            	200.0000    	106.0000    	2.2500      	0.0000      	      
 3415                           	155                            	1098                           	1.0000      	250.0000    	0.1000      	0.0000      	      
 3450                           	215                            	213                            	120.0000    	152.0000    	3.5000      	0.0000      	      
 3417                           	486                            	518                            	440.0000    	310.0000    	3.5000      	0.0000      	      
 3452                           	480                            	497                            	179.0000    	152.0000    	3.0000      	0.0000      	      
 3454                           	506                            	511                            	210.0000    	152.0000    	3.5000      	0.0000      	      
 3466                           	475                            	473                            	1.0000      	150.0000    	0.0300      	0.0000      	      
 3467                           	449                            	423                            	260.0000    	152.0000    	3.0000      	0.0000      	      
 3469                           	510                            	504                            	100.0000    	106.0000    	2.5000      	0.0000      	      
 3470                           	479                            	451                            	172.0000    	110.0000    	0.0300      	0.0000      	      
 3465                           	308                            	278                            	240.0000    	106.0000    	1.7500      	0.0000      	      
 3472                           	483                            	487                            	130.0000    	102.0000    	3.0000      	0.0000      	      
 3480                           	275                            	1902                           	260.0000    	152.0000    	3.5000      	0.0000      	      
 3479                           	320                            	311                            	1.0000      	102.0000    	0.0500      	0.0000      	      
 3486                           	1910                           	308                            	180.0000    	106.0000    	1.7500      	0.0000      	      
 3488                           	489                            	599                            	520.0000    	288.0000    	0.0500      	0.0000      	      
 3502                           	327                            	336                            	280.0000    	102.0000    	3.5000      	0.0000      	      
 3464                           	466                            	477                            	510.0000    	152.0000    	3.0000      	0.0000      	      
 3459                           	567                            	601                            	190.0000    	152.0000    	3.0000      	0.0000      	      
 3468                           	490                            	605                            	210.0000    	310.0000    	20.0000     	0.0000      	      
 3525                           	363                            	299                            	340.0000    	102.0000    	3.0000      	0.0000      	      
 3460                           	865                            	854                            	31.0000     	288.0000    	0.1000      	0.0000      	      
 3461                           	1924                           	476                            	360.0000    	152.0000    	3.5000      	0.0000      	      
 3462                           	334                            	375                            	200.0000    	152.0000    	3.5000      	0.0000      	      
 3449                           	497                            	522                            	210.0000    	152.0000    	3.0000      	0.0000      	      
 3463                           	1929                           	1939                           	220.0000    	102.0000    	3.5000      	0.0000      	      
 3536                           	1623                           	1626                           	500.0000    	300.0000    	0.3000      	0.0000      	      
 3485                           	516                            	512                            	350.0000    	152.0000    	3.5000      	0.0000      	      
 3456                           	1923                           	1924                           	330.0000    	152.0000    	3.5000      	0.0000      	      
 3453                           	508                            	507                            	280.0000    	106.0000    	2.5000      	0.0000      	      
 3483                           	523                            	537                            	220.0000    	144.0000    	0.3000      	0.0000      	      
 3484                           	1622                           	1623                           	200.0000    	300.0000    	0.3000      	0.0000      	      
 3521                           	1574                           	1575                           	360.0000    	152.0000    	4.5000      	0.0000      	      
 3522                           	269                            	276                            	1.0000      	150.0000    	0.0300      	0.0000      	      
 3523                           	1642                           	1673                           	250.0000    	102.0000    	3.0000      	0.0000      	      
 3512                           	1937                           	513                            	120.0000    	152.0000    	3.0000      	0.0000      	      
 3507                           	504                            	508                            	360.0000    	106.0000    	2.5000      	0.0000      	      
 3508                           	295                            	345                            	210.0000    	152.0000    	3.5000      	0.0000      	      
 3503                           	1308                           	1294                           	1.0000      	150.0000    	0.0300      	0.0000      	      
 3504                           	324                            	304                            	210.0000    	229.0000    	3.5000      	0.0000      	      
 3537                           	1618                           	1589                           	240.0000    	152.0000    	3.5000      	0.0000      	      
 3562                           	1630                           	1661                           	350.0000    	229.0000    	3.5000      	0.0000      	      
 3566                           	1627                           	1636                           	190.0000    	152.0000    	3.5000      	0.0000      	      
 3494                           	1925                           	468                            	1.0000      	150.0000    	0.0300      	0.0000      	      
 3511                           	540                            	524                            	1.0000      	76.0000     	0.0300      	0.0000      	      
 3514                           	252                            	263                            	200.0000    	152.0000    	3.5000      	0.0000      	      
 3490                           	482                            	458                            	1.0000      	300.0000    	0.0300      	0.0000      	      
 3493                           	1580                           	1570                           	340.0000    	152.0000    	4.0000      	0.0000      	      
 3497                           	475                            	1930                           	120.0000    	102.0000    	3.5000      	0.0000      	      
 3491                           	477                            	1928                           	110.0000    	144.0000    	0.3000      	0.0000      	      
 3492                           	316                            	288                            	191.0000    	110.0000    	0.0300      	0.0000      	      
 3500                           	478                            	480                            	1.0000      	150.0000    	0.0300      	0.0000      	      
 3520                           	320                            	321                            	1410.0000   	152.0000    	3.5000      	0.0000      	      
 3501                           	459                            	512                            	190.0000    	152.0000    	3.5000      	0.0000      	      
 3515                           	1627                           	1607                           	320.0000    	152.0000    	3.5000      	0.0000      	      
 3498                           	477                            	1926                           	340.0000    	152.0000    	3.0000      	0.0000      	      
 3518                           	1246                           	1272                           	56.0000     	110.0000    	0.0300      	0.0000      	      
 3489                           	224                            	235                            	220.0000    	229.0000    	3.5000      	0.0000      	      
 3527                           	1632                           	1633                           	160.0000    	102.0000    	3.5000      	0.0000      	      
 3561                           	1644                           	20                             	420.0000    	102.0000    	3.0000      	0.0000      	      
 3560                           	1663                           	1690                           	37.0000     	152.0000    	3.5000      	0.0000      	      
 3563                           	1273                           	1780                           	280.0000    	102.0000    	3.0000      	0.0000      	      
 3564                           	1640                           	1656                           	1.0000      	300.0000    	0.1000      	0.0000      	      
 3509                           	307                            	315                            	90.0000     	76.0000     	3.5000      	0.0000      	      
 3519                           	1633                           	1638                           	150.0000    	102.0000    	3.5000      	0.0000      	      
 3552                           	1662                           	1636                           	120.0000    	152.0000    	3.5000      	0.0000      	      
 3556                           	1662                           	1679                           	210.0000    	152.0000    	3.5000      	0.0000      	      
 3546                           	315                            	316                            	45.0000     	110.0000    	0.0300      	0.0000      	      
 3545                           	253                            	216                            	190.0000    	152.0000    	3.7000      	0.0000      	      
 3517                           	1447                           	1483                           	299.0000    	229.0000    	1.0000      	0.0000      	      
 3558                           	1635                           	1627                           	110.0000    	152.0000    	3.5000      	0.0000      	      
 3533                           	1640                           	1658                           	1.0000      	200.0000    	0.1000      	0.0000      	      
 3534                           	1638                           	1                              	180.0000    	152.0000    	3.5000      	0.0000      	      
 3559                           	1653                           	1578                           	220.0000    	152.0000    	3.5000      	0.0000      	      
 3542                           	1651                           	1592                           	250.0000    	229.0000    	3.5000      	0.0000      	      
 3549                           	1658                           	23                             	549.0000    	236.0000    	1.0000      	0.0000      	      
 3550                           	1288                           	1291                           	100.0000    	152.0000    	4.0000      	0.0000      	      
 3548                           	1657                           	22                             	280.0000    	102.0000    	3.5000      	0.0000      	      
 3553                           	1441                           	1497                           	300.0000    	250.0000    	0.1000      	0.0000      	      
 3551                           	492                            	600                            	310.0000    	319.0000    	20.0000     	0.0000      	      
 3557                           	1572                           	1605                           	330.0000    	152.0000    	3.5000      	0.0000      	      
 3540                           	1599                           	1637                           	180.0000    	102.0000    	3.0000      	0.0000      	      
 3541                           	1435                           	1472                           	620.0000    	229.0000    	3.0000      	0.0000      	      
 3539                           	1601                           	1587                           	80.0000     	146.0000    	0.0300      	0.0000      	      
 3531                           	1633                           	1677                           	280.0000    	152.0000    	3.5000      	0.0000      	      
 3532                           	1639                           	8                              	280.0000    	152.0000    	3.7000      	0.0000      	      
 3571                           	1590                           	1582                           	150.0000    	229.0000    	3.5000      	0.0000      	      
 3570                           	1606                           	1581                           	250.0000    	102.0000    	3.5000      	0.0000      	      
 3568                           	1627                           	1662                           	170.0000    	152.0000    	3.5000      	0.0000      	      
 3569                           	1608                           	1664                           	190.0000    	152.0000    	3.5000      	0.0000      	      
 3530                           	1645                           	19                             	290.0000    	102.0000    	3.5000      	0.0000      	      
 3581                           	1906                           	311                            	359.0000    	229.0000    	3.5000      	0.0000      	      
 3582                           	314                            	301                            	1.0000      	300.0000    	0.1000      	0.0000      	      
 3591                           	235                            	223                            	1.0000      	229.0000    	0.1000      	0.0000      	      
 3605                           	1523                           	1551                           	170.0000    	102.0000    	3.5000      	0.0000      	      
 3606                           	256                            	262                            	170.0000    	152.0000    	3.5000      	0.0000      	      
 3641                           	222                            	226                            	100.0000    	102.0000    	3.0000      	0.0000      	      
 3603                           	256                            	312                            	289.0000    	229.0000    	3.5000      	0.0000      	      
 3604                           	240                            	287                            	410.0000    	106.0000    	1.7500      	0.0000      	      
 3597                           	204                            	244                            	180.0000    	229.0000    	3.5000      	0.0000      	      
 3598                           	194                            	302                            	210.0000    	152.0000    	3.5000      	0.0000      	      
 3599                           	261                            	305                            	170.0000    	152.0000    	3.2000      	0.0000      	      
 3495                           	1299                           	1249                           	140.0000    	102.0000    	4.0000      	0.0000      	      
 3600                           	261                            	309                            	170.0000    	229.0000    	10.0000     	0.0000      	      
 3602                           	245                            	1902                           	320.0000    	152.0000    	3.5000      	0.0000      	      
 3638                           	220                            	258                            	300.0000    	152.0000    	3.5000      	0.0000      	      
 3588                           	287                            	278                            	170.0000    	159.0000    	1.7500      	0.0000      	      
 3640                           	199                            	190                            	120.0000    	144.0000    	0.3000      	0.0000      	      
 3642                           	199                            	1893                           	250.0000    	144.0000    	0.3000      	0.0000      	      
 3596                           	259                            	351                            	560.0000    	474.0000    	2.0000      	0.0000      	      
 3589                           	314                            	1909                           	1.0000      	300.0000    	0.1000      	0.0000      	      
 3601                           	260                            	265                            	151.0000    	159.0000    	1.7500      	0.0000      	      
 3631                           	1902                           	326                            	280.0000    	102.0000    	3.5000      	0.0000      	      
 3593                           	197                            	171                            	1.0000      	250.0000    	0.0300      	0.0000      	      
 3580                           	284                            	1905                           	80.0000     	152.0000    	3.5000      	0.0000      	      
 3554                           	1633                           	1618                           	240.0000    	152.0000    	3.5000      	0.0000      	      
 3594                           	232                            	1901                           	38.0000     	150.0000    	0.0300      	0.0000      	      
 3555                           	1605                           	1632                           	310.0000    	152.0000    	3.5000      	0.0000      	      
 3630                           	193                            	260                            	170.0000    	102.0000    	3.5000      	0.0000      	      
 3583                           	206                            	1898                           	310.0000    	102.0000    	3.0000      	0.0000      	      
 3578                           	285                            	302                            	150.0000    	152.0000    	3.5000      	0.0000      	      
 3575                           	316                            	288                            	301.0000    	110.0000    	0.0300      	0.0000      	      
 3576                           	1908                           	315                            	76.0000     	110.0000    	0.0300      	0.0000      	      
 3573                           	1577                           	1580                           	320.0000    	152.0000    	4.0000      	0.0000      	      
 3577                           	255                            	258                            	190.0000    	102.0000    	3.5000      	0.0000      	      
 3675                           	164                            	185                            	270.0000    	102.0000    	3.0000      	0.0000      	      
 3608                           	300                            	319                            	180.0000    	152.0000    	3.5000      	0.0000      	      
 3609                           	264                            	290                            	90.0000     	152.0000    	3.5000      	0.0000      	      
 3607                           	298                            	275                            	220.0000    	152.0000    	3.5000      	0.0000      	      
 3611                           	266                            	247                            	170.0000    	102.0000    	3.7000      	0.0000      	      
 3644                           	247                            	216                            	150.0000    	102.0000    	3.7000      	0.0000      	      
 3612                           	294                            	1908                           	59.0000     	76.0000     	3.5000      	0.0000      	      
 3671                           	194                            	178                            	180.0000    	152.0000    	3.5000      	0.0000      	      
 3673                           	202                            	172                            	270.0000    	387.0000    	20.5000     	0.0000      	      
 3674                           	194                            	223                            	219.0000    	229.0000    	3.5000      	0.0000      	      
 3635                           	247                            	248                            	250.0000    	102.0000    	3.7000      	0.0000      	      
 3620                           	255                            	297                            	140.0000    	152.0000    	3.5000      	0.0000      	      
 3633                           	241                            	236                            	1.0000      	300.0000    	0.1000      	0.0000      	      
 3634                           	244                            	319                            	190.0000    	229.0000    	3.5000      	0.0000      	      
 3648                           	1899                           	241                            	240.0000    	159.0000    	2.0000      	0.0000      	      
 3649                           	219                            	255                            	330.0000    	152.0000    	3.5000      	0.0000      	      
 3626                           	1900                           	234                            	220.0000    	159.0000    	1.7500      	0.0000      	      
 3586                           	243                            	196                            	190.0000    	152.0000    	3.5000      	0.0000      	      
 3628                           	214                            	261                            	460.0000    	229.0000    	10.0000     	0.0000      	      
 3679                           	1900                           	270                            	170.0000    	159.0000    	1.7500      	0.0000      	      
 3647                           	242                            	395                            	150.0000    	102.0000    	20.0000     	0.0000      	      
 3587                           	131                            	150                            	220.0000    	152.0000    	3.7000      	0.0000      	      
 3614                           	279                            	294                            	67.0000     	102.0000    	3.5000      	0.0000      	      
 3615                           	165                            	224                            	210.0000    	229.0000    	3.5000      	0.0000      	      
 3616                           	1901                           	238                            	88.0000     	150.0000    	0.0300      	0.0000      	      
 3629                           	249                            	252                            	260.0000    	152.0000    	3.5000      	0.0000      	      
 3623                           	1535                           	1583                           	260.0000    	102.0000    	3.5000      	0.0000      	      
 3613                           	278                            	270                            	310.0000    	159.0000    	1.7500      	0.0000      	      
 3646                           	215                            	200                            	260.0000    	152.0000    	3.5000      	0.0000      	      
 3645                           	254                            	293                            	170.0000    	102.0000    	3.2000      	0.0000      	      
 3656                           	226                            	206                            	210.0000    	102.0000    	3.0000      	0.0000      	      
 3681                           	241                            	251                            	1.0000      	300.0000    	0.1000      	0.0000      	      
 3683                           	141                            	122                            	160.0000    	152.0000    	3.7000      	0.0000      	      
 3684                           	1544                           	1535                           	80.0000     	102.0000    	3.5000      	0.0000      	      
 3627                           	243                            	300                            	150.0000    	152.0000    	3.5000      	0.0000      	      
 3667                           	190                            	181                            	210.0000    	144.0000    	0.3000      	0.0000      	      
 3668                           	207                            	198                            	70.0000     	152.0000    	3.5000      	0.0000      	      
 3685                           	218                            	261                            	460.0000    	152.0000    	3.5000      	0.0000      	      
 3680                           	217                            	216                            	300.0000    	152.0000    	3.7000      	0.0000      	      
 3610                           	270                            	265                            	109.0000    	159.0000    	1.7500      	0.0000      	      
 3676                           	153                            	1894                           	80.0000     	152.0000    	3.5000      	0.0000      	      
 3678                           	1894                           	179                            	220.0000    	152.0000    	3.5000      	0.0000      	      
 3617                           	239                            	317                            	210.0000    	102.0000    	3.5000      	0.0000      	      
 3718                           	1006                           	1007                           	260.0000    	152.0000    	2.0000      	0.0000      	      
 3651                           	198                            	227                            	420.0000    	152.0000    	3.5000      	0.0000      	      
 3618                           	248                            	217                            	160.0000    	152.0000    	3.7000      	0.0000      	      
 3621                           	286                            	274                            	90.0000     	102.0000    	3.0000      	0.0000      	      
 3653                           	227                            	256                            	240.0000    	229.0000    	3.5000      	0.0000      	      
 3654                           	207                            	262                            	440.0000    	152.0000    	3.5000      	0.0000      	      
 3734                           	967                            	969                            	390.0000    	152.0000    	2.0000      	0.0000      	      
 3655                           	1905                           	237                            	240.0000    	152.0000    	3.5000      	0.0000      	      
 3659                           	241                            	340                            	290.0000    	319.0000    	0.6500      	0.0000      	      
 3660                           	498                            	466                            	280.0000    	144.0000    	0.3000      	0.0000      	      
 3661                           	244                            	249                            	110.0000    	152.0000    	3.5000      	0.0000      	      
 3662                           	1902                           	277                            	90.0000     	229.0000    	3.5000      	0.0000      	      
 3663                           	244                            	243                            	200.0000    	102.0000    	3.5000      	0.0000      	      
 3666                           	198                            	1894                           	150.0000    	152.0000    	3.5000      	0.0000      	      
 3665                           	140                            	126                            	270.0000    	152.0000    	3.0000      	0.0000      	      
 3686                           	192                            	1898                           	310.0000    	102.0000    	3.0000      	0.0000      	      
 3688                           	190                            	1893                           	100.0000    	144.0000    	0.3000      	0.0000      	      
 3711                           	982                            	1001                           	130.0000    	106.0000    	10.0000     	0.0000      	      
 3669                           	188                            	225                            	310.0000    	152.0000    	3.5000      	0.0000      	      
 3670                           	198                            	153                            	200.0000    	152.0000    	3.5000      	0.0000      	      
 3717                           	496                            	1022                           	300.0000    	152.0000    	2.0000      	0.0000      	      
 3708                           	1038                           	208                            	310.0000    	152.0000    	3.2000      	0.0000      	      
 3709                           	1043                           	1115                           	590.0000    	296.0000    	2.3000      	0.0000      	      
 3736                           	309                            	297                            	280.0000    	152.0000    	3.5000      	0.0000      	      
 3657                           	234                            	278                            	250.0000    	159.0000    	1.7500      	0.0000      	      
 3739                           	924                            	896                            	250.0000    	106.0000    	10.0000     	0.0000      	      
 3725                           	1458                           	1451                           	260.0000    	102.0000    	4.0000      	0.0000      	      
 3700                           	996                            	981                            	90.0000     	254.0000    	6.0000      	0.0000      	      
 3732                           	1169                           	1212                           	20.0000     	236.0000    	6.0000      	0.0000      	      
 3701                           	1013                           	1023                           	55.0000     	319.0000    	6.2500      	0.0000      	      
 3658                           	305                            	336                            	110.0000    	152.0000    	3.2000      	0.0000      	      
 3706                           	1472                           	1439                           	230.0000    	152.0000    	3.0000      	0.0000      	      
 3696                           	498                            	499                            	260.0000    	197.0000    	0.3000      	0.0000      	      
 3702                           	996                            	1012                           	100.0000    	254.0000    	6.0000      	0.0000      	      
 3703                           	1046                           	1073                           	470.0000    	102.0000    	3.0000      	0.0000      	      
 3724                           	1075                           	1117                           	91.0000     	150.0000    	0.0300      	0.0000      	      
 3692                           	552                            	539                            	190.0000    	310.0000    	10.0000     	0.0000      	      
 3746                           	976                            	1011                           	450.0000    	152.0000    	3.5000      	0.0000      	      
 3747                           	924                            	941                            	130.0000    	106.0000    	10.0000     	0.0000      	      
 3730                           	518                            	593                            	310.0000    	310.0000    	3.5000      	0.0000      	      
 3731                           	1131                           	645                            	170.0000    	106.0000    	2.0000      	0.0000      	      
 3727                           	1461                           	1477                           	75.0000     	152.0000    	4.5000      	0.0000      	      
 3752                           	931                            	943                            	270.0000    	152.0000    	4.5000      	0.0000      	      
 3742                           	996                            	981                            	510.0000    	144.0000    	1.3000      	0.0000      	      
 3744                           	979                            	985                            	64.0000     	229.0000    	2.0000      	0.0000      	      
 3798                           	939                            	1004                           	360.0000    	236.0000    	10.0000     	0.0000      	      
 3764                           	979                            	532                            	220.0000    	229.0000    	3.0000      	0.0000      	      
 3797                           	964                            	959                            	230.0000    	152.0000    	3.5000      	0.0000      	      
 3782                           	880                            	842                            	200.0000    	236.0000    	10.0000     	0.0000      	      
 3763                           	958                            	942                            	275.0000    	300.0000    	0.0500      	0.0000      	      
 3738                           	1013                           	1043                           	100.0000    	296.0000    	2.3000      	0.0000      	      
 3751                           	962                            	965                            	400.0000    	152.0000    	2.0000      	0.0000      	      
 3778                           	902                            	892                            	1.0000      	102.0000    	10.0000     	0.0000      	      
 3805                           	942                            	933                            	30.0000     	300.0000    	0.0500      	0.0000      	      
 3749                           	943                            	949                            	410.0000    	152.0000    	4.5000      	0.0000      	      
 3695                           	1021                           	1027                           	55.0000     	319.0000    	6.2500      	0.0000      	      
 3728                           	1453                           	1482                           	230.0000    	229.0000    	3.5000      	0.0000      	      
 3775                           	967                            	1007                           	330.0000    	152.0000    	2.0000      	0.0000      	      
 3729                           	1930                           	569                            	210.0000    	102.0000    	3.5000      	0.0000      	      
 3758                           	992                            	978                            	320.0000    	152.0000    	3.2000      	0.0000      	      
 3761                           	944                            	982                            	240.0000    	106.0000    	10.0000     	0.0000      	      
 3762                           	936                            	939                            	200.0000    	159.0000    	2.2500      	0.0000      	      
 3753                           	925                            	949                            	520.0000    	152.0000    	4.5000      	0.0000      	      
 3765                           	941                            	982                            	290.0000    	106.0000    	10.0000     	0.0000      	      
 3766                           	944                            	924                            	210.0000    	106.0000    	10.0000     	0.0000      	      
 3793                           	978                            	1005                           	220.0000    	152.0000    	3.2000      	0.0000      	      
 3784                           	884                            	909                            	246.0000    	296.0000    	0.3000      	0.0000      	      
 3772                           	942                            	916                            	290.0000    	144.0000    	1.3000      	0.0000      	      
 3806                           	920                            	939                            	210.0000    	236.0000    	10.0000     	0.0000      	      
 3804                           	900                            	915                            	190.0000    	178.0000    	4.0000      	0.0000      	      
 3785                           	943                            	955                            	190.0000    	152.0000    	3.5000      	0.0000      	      
 3769                           	901                            	905                            	110.0000    	229.0000    	2.5000      	0.0000      	      
 3774                           	985                            	496                            	430.0000    	152.0000    	2.0000      	0.0000      	      
 3771                           	932                            	950                            	220.0000    	262.0000    	2.5000      	0.0000      	      
 3776                           	964                            	967                            	230.0000    	152.0000    	3.5000      	0.0000      	      
 3777                           	965                            	496                            	300.0000    	102.0000    	3.5000      	0.0000      	      
 3755                           	923                            	949                            	270.0000    	152.0000    	4.5000      	0.0000      	      
 3754                           	981                            	958                            	380.0000    	254.0000    	6.0000      	0.0000      	      
 3800                           	918                            	914                            	1.0000      	150.0000    	0.0300      	0.0000      	      
 3799                           	916                            	930                            	225.0000    	144.0000    	1.3000      	0.0000      	      
 3837                           	954                            	976                            	390.0000    	152.0000    	3.5000      	0.0000      	      
 3838                           	901                            	931                            	170.0000    	152.0000    	4.5000      	0.0000      	      
 3788                           	922                            	919                            	105.0000    	159.0000    	0.0300      	0.0000      	      
 3789                           	863                            	903                            	100.0000    	102.0000    	4.5000      	0.0000      	      
 3836                           	901                            	900                            	190.0000    	152.0000    	2.5000      	0.0000      	      
 3812                           	933                            	930                            	35.0000     	254.0000    	6.0000      	0.0000      	      
 3809                           	976                            	1008                           	320.0000    	152.0000    	3.5000      	0.0000      	      
 3811                           	911                            	912                            	230.0000    	152.0000    	2.0000      	0.0000      	      
 3815                           	699                            	724                            	200.0000    	152.0000    	3.5000      	0.0000      	      
 3816                           	907                            	905                            	180.0000    	229.0000    	2.5000      	0.0000      	      
 3821                           	1467                           	1527                           	510.0000    	106.0000    	2.5000      	0.0000      	      
 3868                           	869                            	892                            	130.0000    	102.0000    	10.0000     	0.0000      	      
 3858                           	853                            	840                            	160.0000    	102.0000    	4.5000      	0.0000      	      
 3824                           	832                            	844                            	150.0000    	144.0000    	0.3000      	0.0000      	      
 3835                           	972                            	967                            	430.0000    	102.0000    	3.5000      	0.0000      	      
 3820                           	1442                           	1449                           	330.0000    	152.0000    	4.5000      	0.0000      	      
 3855                           	839                            	834                            	123.0000    	150.0000    	6.0000      	0.0000      	      
 3856                           	911                            	910                            	230.0000    	152.0000    	2.0000      	0.0000      	      
 3822                           	871                            	875                            	135.0000    	144.0000    	4.0000      	0.0000      	      
 3828                           	883                            	881                            	210.0000    	152.0000    	3.5000      	0.0000      	      
 3830                           	917                            	936                            	240.0000    	102.0000    	3.5000      	0.0000      	      
 3832                           	928                            	929                            	320.0000    	106.0000    	2.2500      	0.0000      	      
 3863                           	860                            	856                            	122.0000    	152.0000    	4.5000      	0.0000      	      
 3865                           	834                            	872                            	177.0000    	150.0000    	6.0000      	0.0000      	      
 3866                           	916                            	919                            	235.0000    	144.0000    	1.3000      	0.0000      	      
 3867                           	909                            	932                            	150.0000    	262.0000    	2.5000      	0.0000      	      
 3869                           	881                            	880                            	230.0000    	152.0000    	3.5000      	0.0000      	      
 3870                           	829                            	893                            	400.0000    	152.0000    	4.5000      	0.0000      	      
 3878                           	875                            	854                            	50.0000     	202.0000    	0.1000      	0.0000      	      
 3879                           	826                            	822                            	1.0000      	102.0000    	10.0000     	0.0000      	      
 3875                           	915                            	931                            	220.0000    	152.0000    	4.5000      	0.0000      	      
 3826                           	911                            	881                            	250.0000    	152.0000    	3.5000      	0.0000      	      
 3854                           	1433                           	1457                           	300.0000    	152.0000    	4.5000      	0.0000      	      
 3873                           	1444                           	1456                           	310.0000    	152.0000    	4.5000      	0.0000      	      
 3843                           	835                            	806                            	160.0000    	229.0000    	2.5000      	0.0000      	      
 3850                           	875                            	854                            	50.0000     	202.0000    	0.1000      	0.0000      	      
 3851                           	877                            	928                            	170.0000    	106.0000    	2.2500      	0.0000      	      
 3874                           	915                            	923                            	380.0000    	102.0000    	4.5000      	0.0000      	      
 3845                           	868                            	857                            	110.0000    	106.0000    	2.2500      	0.0000      	      
 3848                           	870                            	864                            	1.0000      	97.0000     	0.0300      	0.0000      	      
 3842                           	894                            	886                            	1.0000      	100.0000    	0.0300      	0.0000      	      
 3846                           	895                            	903                            	150.0000    	152.0000    	4.5000      	0.0000      	      
 3944                           	746                            	1964                           	170.0000    	152.0000    	5.0000      	0.0000      	      
 3911                           	1463                           	1504                           	290.0000    	106.0000    	2.5000      	0.0000      	      
 3933                           	818                            	822                            	230.0000    	102.0000    	10.0000     	0.0000      	      
 3881                           	807                            	808                            	1.0000      	100.0000    	0.0300      	0.0000      	      
 3894                           	862                            	850                            	1.0000      	300.0000    	0.1000      	0.0000      	      
 3893                           	874                            	896                            	250.0000    	106.0000    	10.0000     	0.0000      	      
 3899                           	847                            	863                            	240.0000    	102.0000    	4.5000      	0.0000      	      
 3885                           	816                            	853                            	220.0000    	152.0000    	4.5000      	0.0000      	      
 3886                           	806                            	793                            	140.0000    	152.0000    	4.5000      	0.0000      	      
 3883                           	860                            	900                            	160.0000    	152.0000    	4.0000      	0.0000      	      
 3888                           	851                            	842                            	290.0000    	152.0000    	3.5000      	0.0000      	      
 3889                           	833                            	818                            	280.0000    	102.0000    	10.0000     	0.0000      	      
 3890                           	830                            	821                            	204.0000    	150.0000    	0.0300      	0.0000      	      
 3891                           	830                            	834                            	153.0000    	154.0000    	6.0000      	0.0000      	      
 3918                           	777                            	779                            	200.0000    	236.0000    	1.0000      	0.0000      	      
 3897                           	867                            	848                            	178.0000    	300.0000    	6.0000      	0.0000      	      
 3898                           	862                            	884                            	34.0000     	296.0000    	0.3000      	0.0000      	      
 3903                           	676                            	674                            	220.0000    	152.0000    	3.0000      	0.0000      	      
 3904                           	861                            	859                            	1.0000      	102.0000    	10.0000     	0.0000      	      
 3951                           	837                            	884                            	129.0000    	319.0000    	0.3400      	0.0000      	      
 3913                           	701                            	714                            	250.0000    	152.0000    	3.0000      	0.0000      	      
 3953                           	848                            	839                            	602.0000    	152.0000    	6.0000      	0.0000      	      
 3887                           	857                            	877                            	170.0000    	106.0000    	2.2500      	0.0000      	      
 3901                           	187                            	457                            	150.0000    	319.0000    	1.8000      	0.0000      	      
 3907                           	676                            	1952                           	110.0000    	152.0000    	3.0000      	0.0000      	      
 3910                           	816                            	840                            	270.0000    	152.0000    	4.5000      	0.0000      	      
 3905                           	180                            	1131                           	190.0000    	106.0000    	2.0000      	0.0000      	      
 3861                           	832                            	844                            	320.0000    	144.0000    	0.3000      	0.0000      	      
 3859                           	828                            	825                            	1.0000      	150.0000    	0.0300      	0.0000      	      
 3949                           	832                            	841                            	180.0000    	144.0000    	0.3000      	0.0000      	      
 3862                           	915                            	943                            	110.0000    	178.0000    	4.0000      	0.0000      	      
 3908                           	1970                           	794                            	130.0000    	102.0000    	10.0000     	0.0000      	      
 3914                           	701                            	711                            	210.0000    	152.0000    	5.0000      	0.0000      	      
 3915                           	785                            	829                            	250.0000    	152.0000    	4.5000      	0.0000      	      
 3919                           	844                            	871                            	90.0000     	159.0000    	0.3700      	0.0000      	      
 3895                           	833                            	869                            	140.0000    	102.0000    	10.0000     	0.0000      	      
 3941                           	856                            	865                            	20.0000     	152.0000    	4.0000      	0.0000      	      
 3942                           	826                            	861                            	230.0000    	310.0000    	6.0000      	0.0000      	      
 3945                           	843                            	833                            	290.0000    	106.0000    	10.0000     	0.0000      	      
 3947                           	803                            	841                            	270.0000    	144.0000    	0.3000      	0.0000      	      
 3959                           	802                            	734                            	490.0000    	229.0000    	3.0000      	0.0000      	      
 3956                           	780                            	797                            	170.0000    	229.0000    	5.0000      	0.0000      	      
 3912                           	730                            	1963                           	160.0000    	152.0000    	3.0000      	0.0000      	      
 3985                           	824                            	833                            	350.0000    	102.0000    	10.0000     	0.0000      	      
 3955                           	753                            	760                            	1.0000      	300.0000    	0.1000      	0.0000      	      
 3983                           	770                            	772                            	250.0000    	159.0000    	10.0000     	0.0000      	      
 3986                           	817                            	821                            	264.0000    	150.0000    	0.0300      	0.0000      	      
 3957                           	774                            	789                            	150.0000    	152.0000    	3.0000      	0.0000      	      
 3972                           	780                            	797                            	170.0000    	152.0000    	3.5000      	0.0000      	      
 3973                           	779                            	776                            	190.0000    	236.0000    	1.0000      	0.0000      	      
 3938                           	820                            	862                            	280.0000    	296.0000    	0.3000      	0.0000      	      
 3930                           	860                            	853                            	130.0000    	152.0000    	4.5000      	0.0000      	      
 3931                           	859                            	869                            	230.0000    	102.0000    	10.0000     	0.0000      	      
 3923                           	815                            	879                            	150.0000    	229.0000    	4.5000      	0.0000      	      
 3928                           	855                            	851                            	140.0000    	102.0000    	3.5000      	0.0000      	      
 3929                           	829                            	863                            	310.0000    	102.0000    	4.5000      	0.0000      	      
 3954                           	841                            	860                            	160.0000    	144.0000    	0.3000      	0.0000      	      
 3934                           	855                            	883                            	160.0000    	102.0000    	3.5000      	0.0000      	      
 3961                           	750                            	748                            	1.0000      	102.0000    	3.5000      	0.0000      	      
 3962                           	795                            	806                            	160.0000    	229.0000    	2.5000      	0.0000      	      
 3948                           	847                            	895                            	220.0000    	229.0000    	2.5000      	0.0000      	      
 3926                           	810                            	847                            	250.0000    	102.0000    	4.5000      	0.0000      	      
 3927                           	840                            	835                            	170.0000    	102.0000    	4.5000      	0.0000      	      
 3950                           	861                            	852                            	1.0000      	102.0000    	10.0000     	0.0000      	      
 3968                           	794                            	833                            	230.0000    	102.0000    	10.0000     	0.0000      	      
 3992                           	781                            	795                            	150.0000    	152.0000    	4.5000      	0.0000      	      
 3994                           	646                            	595                            	250.0000    	159.0000    	2.0000      	0.0000      	      
 3989                           	781                            	793                            	70.0000     	152.0000    	4.5000      	0.0000      	      
 4015                           	719                            	718                            	110.0000    	152.0000    	3.0000      	0.0000      	      
 4016                           	671                            	709                            	260.0000    	106.0000    	10.0000     	0.0000      	      
 4017                           	745                            	752                            	140.0000    	229.0000    	20.0000     	0.0000      	      
 4018                           	1960                           	756                            	190.0000    	152.0000    	3.5000      	0.0000      	      
 3971                           	1956                           	757                            	350.0000    	152.0000    	3.0000      	0.0000      	      
 3991                           	818                            	852                            	120.0000    	102.0000    	10.0000     	0.0000      	      
 4013                           	694                            	724                            	240.0000    	152.0000    	3.5000      	0.0000      	      
 4010                           	1952                           	730                            	320.0000    	152.0000    	3.0000      	0.0000      	      
 3966                           	777                            	784                            	130.0000    	397.0000    	2.0000      	0.0000      	      
 3998                           	688                            	1952                           	460.0000    	152.0000    	3.0000      	0.0000      	      
 3978                           	791                            	1973                           	229.0000    	102.0000    	10.0000     	0.0000      	      
 3993                           	842                            	787                            	229.0000    	236.0000    	10.0000     	0.0000      	      
 4011                           	665                            	677                            	1.0000      	300.0000    	0.1000      	0.0000      	      
 3999                           	682                            	701                            	110.0000    	102.0000    	3.0000      	0.0000      	      
 3970                           	761                            	691                            	620.0000    	400.0000    	0.3000      	0.0000      	      
 3979                           	777                            	855                            	340.0000    	102.0000    	3.5000      	0.0000      	      
 3977                           	827                            	837                            	320.0000    	300.0000    	0.3400      	0.0000      	      
 4006                           	769                            	770                            	1.0000      	159.0000    	10.0000     	0.0000      	      
 4007                           	716                            	685                            	230.0000    	152.0000    	3.0000      	0.0000      	      
 4009                           	752                            	1969                           	140.0000    	152.0000    	20.0000     	0.0000      	      
 4037                           	602                            	603                            	260.0000    	102.0000    	3.5000      	0.0000      	      
 4038                           	664                            	602                            	240.0000    	102.0000    	3.5000      	0.0000      	      
 4023                           	752                            	1969                           	140.0000    	144.0000    	1.0000      	0.0000      	      
 4025                           	795                            	799                            	130.0000    	152.0000    	4.5000      	0.0000      	      
 4026                           	799                            	816                            	260.0000    	152.0000    	4.5000      	0.0000      	      
 4027                           	780                            	764                            	110.0000    	229.0000    	3.5000      	0.0000      	      
 4022                           	773                            	3007                           	100.0000    	300.0000    	0.5000      	0.0000      	      
 4073                           	187                            	457                            	150.0000    	159.0000    	2.0000      	0.0000      	      
 4066                           	1428                           	1414                           	380.0000    	152.0000    	4.5000      	0.0000      	      
 4075                           	1591                           	1607                           	228.0000    	152.0000    	3.5000      	0.0000      	      
 4035                           	1958                           	1959                           	1.0000      	106.0000    	10.0000     	0.0000      	      
 3997                           	707                            	721                            	130.0000    	152.0000    	3.5000      	0.0000      	      
 4031                           	711                            	703                            	1.0000      	300.0000    	0.1000      	0.0000      	      
 4071                           	679                            	710                            	320.0000    	106.0000    	2.2500      	0.0000      	      
 3996                           	692                            	699                            	110.0000    	102.0000    	3.5000      	0.0000      	      
 4032                           	686                            	588                            	390.0000    	102.0000    	3.0000      	0.0000      	      
 4020                           	713                            	674                            	280.0000    	152.0000    	3.0000      	0.0000      	      
 4036                           	693                            	673                            	113.0000    	288.0000    	0.1000      	0.0000      	      
 3981                           	761                            	764                            	62.0000     	296.0000    	0.3000      	0.0000      	      
 4068                           	701                            	702                            	460.0000    	152.0000    	5.0000      	0.0000      	      
 4002                           	262                            	1911                           	290.0000    	152.0000    	3.5000      	0.0000      	      
 4069                           	698                            	1954                           	200.0000    	102.0000    	3.0000      	0.0000      	      
 4014                           	719                            	1962                           	280.0000    	152.0000    	3.0000      	0.0000      	      
 4034                           	690                            	708                            	270.0000    	152.0000    	3.5000      	0.0000      	      
 3995                           	1956                           	647                            	1680.0000   	474.0000    	2.0000      	0.0000      	      
 4061                           	714                            	719                            	260.0000    	152.0000    	3.0000      	0.0000      	      
 4063                           	668                            	694                            	240.0000    	152.0000    	3.5000      	0.0000      	      
 4033                           	486                            	528                            	260.0000    	152.0000    	5.0000      	0.0000      	      
 4067                           	344                            	377                            	200.0000    	152.0000    	3.5000      	0.0000      	      
 4100                           	1222                           	187                            	240.0000    	159.0000    	2.0000      	0.0000      	      
 4005                           	755                            	741                            	1.0000      	152.0000    	0.0300      	0.0000      	      
 4053                           	1222                           	1172                           	120.0000    	106.0000    	2.0000      	0.0000      	      
 4060                           	689                            	720                            	80.0000     	397.0000    	12.5000     	0.0000      	      
 4047                           	684                            	698                            	120.0000    	102.0000    	3.0000      	0.0000      	      
 4048                           	1439                           	1415                           	180.0000    	152.0000    	3.0000      	0.0000      	      
 4077                           	197                            	203                            	1.0000      	150.0000    	0.0300      	0.0000      	      
 4097                           	732                            	737                            	230.3500    	152.0000    	3.5000      	0.0000      	      
 4108                           	274                            	205                            	320.0000    	102.0000    	3.0000      	0.0000      	      
 4083                           	467                            	534                            	300.0000    	102.0000    	3.0000      	0.0000      	      
 4093                           	322                            	307                            	138.0000    	102.0000    	3.5000      	0.0000      	      
 4050                           	1430                           	1422                           	1.0000      	229.0000    	0.1000      	0.0000      	      
 4098                           	732                            	1955                           	370.0000    	152.0000    	3.5000      	0.0000      	      
 4051                           	540                            	526                            	150.0000    	310.0000    	10.0000     	0.0000      	      
 4003                           	802                            	828                            	200.0000    	229.0000    	3.0000      	0.0000      	      
 4000                           	1969                           	827                            	155.0000    	319.0000    	0.3400      	0.0000      	      
 4099                           	597                            	1222                           	380.0000    	319.0000    	1.8000      	0.0000      	      
 4001                           	756                            	775                            	260.0000    	152.0000    	3.5000      	0.0000      	      
 4056                           	725                            	1956                           	180.0000    	152.0000    	3.0000      	0.0000      	      
 4054                           	711                            	1961                           	230.0000    	152.0000    	3.5000      	0.0000      	      
 4040                           	629                            	601                            	210.0000    	152.0000    	3.0000      	0.0000      	      
 4104                           	1441                           	1438                           	300.0000    	250.0000    	0.1000      	0.0000      	      
 4044                           	744                            	407                            	310.0000    	152.0000    	3.0000      	0.0000      	      
 4045                           	690                            	681                            	230.0000    	152.0000    	3.5000      	0.0000      	      
 4042                           	681                            	712                            	310.0000    	102.0000    	3.5000      	0.0000      	      
 4081                           	552                            	580                            	1.0000      	150.0000    	0.0300      	0.0000      	      
 4082                           	768                            	1208                           	155.0000    	319.0000    	21.0000     	0.0000      	      
 4079                           	1135                           	1219                           	160.0000    	152.0000    	3.0000      	0.0000      	      
 4078                           	1185                           	1235                           	150.0000    	106.0000    	2.2500      	0.0000      	      
 4074                           	1215                           	1196                           	218.0000    	101.0000    	0.0300      	0.0000      	      
 4094                           	1957                           	754                            	250.0000    	152.0000    	3.5000      	0.0000      	      
 4095                           	736                            	1962                           	320.0000    	152.0000    	3.0000      	0.0000      	      
 4096                           	731                            	763                            	290.0000    	102.0000    	3.0000      	0.0000      	      
 4058                           	1438                           	1484                           	300.0000    	250.0000    	0.1000      	0.0000      	      
 4059                           	729                            	745                            	390.0000    	229.0000    	20.0000     	0.0000      	      
 4114                           	1436                           	1447                           	1.0000      	102.0000    	0.0500      	0.0000      	      
 4115                           	269                            	391                            	330.0000    	464.0000    	3.5000      	0.0000      	      
 4091                           	147                            	767                            	120.0000    	106.0000    	2.0000      	0.0000      	      
 4085                           	1236                           	1120                           	1.0000      	300.0000    	0.1000      	0.0000      	      
 4113                           	1094                           	1230                           	250.0000    	102.0000    	3.0000      	0.0000      	      
 4103                           	1608                           	1597                           	130.0000    	102.0000    	3.5000      	0.0000      	      
 4046                           	693                            	700                            	303.0000    	150.0000    	0.0300      	0.0000      	      
 4136                           	1595                           	1649                           	350.0000    	229.0000    	3.5000      	0.0000      	      
 4137                           	1429                           	1473                           	330.0000    	159.0000    	2.5000      	0.0000      	      
 4162                           	385                            	381                            	230.0000    	106.0000    	2.2500      	0.0000      	      
 4163                           	537                            	574                            	120.0000    	144.0000    	0.3000      	0.0000      	      
 4116                           	321                            	314                            	771.0000    	319.0000    	2.2500      	0.0000      	      
 4105                           	1602                           	1567                           	300.0000    	152.0000    	1.0000      	0.0000      	      
 4089                           	362                            	392                            	149.0000    	152.0000    	3.5000      	0.0000      	      
 4092                           	767                            	1160                           	300.0000    	106.0000    	2.0000      	0.0000      	      
 4110                           	285                            	1889                           	210.0000    	152.0000    	3.5000      	0.0000      	      
 4133                           	1573                           	1566                           	111.0000    	159.0000    	0.0300      	0.0000      	      
 4111                           	1231                           	1172                           	300.0000    	106.0000    	2.0000      	0.0000      	      
 4086                           	1601                           	1624                           	356.0000    	146.0000    	0.0300      	0.0000      	      
 4106                           	309                            	336                            	110.0000    	229.0000    	10.0000     	0.0000      	      
 4107                           	1905                           	272                            	180.0000    	152.0000    	3.5000      	0.0000      	      
 4102                           	422                            	1236                           	290.0000    	152.0000    	3.0000      	0.0000      	      
 4109                           	1045                           	680                            	114.0000    	110.0000    	0.0300      	0.0000      	      
 4132                           	1160                           	1163                           	120.0000    	152.0000    	3.0000      	0.0000      	      
 4122                           	1906                           	238                            	60.0000     	229.0000    	3.5000      	0.0000      	      
 4124                           	274                            	222                            	370.0000    	102.0000    	3.0000      	0.0000      	      
 4118                           	273                            	205                            	340.0000    	102.0000    	3.0000      	0.0000      	      
 4119                           	295                            	285                            	150.0000    	152.0000    	3.5000      	0.0000      	      
 4120                           	269                            	417                            	470.0000    	102.0000    	3.5000      	0.0000      	      
 4129                           	1236                           	788                            	1.0000      	300.0000    	0.1000      	0.0000      	      
 4142                           	1153                           	313                            	110.0000    	106.0000    	2.2500      	0.0000      	      
 4135                           	1439                           	1443                           	310.0000    	102.0000    	3.0000      	0.0000      	      
 4128                           	283                            	348                            	280.0000    	102.0000    	3.5000      	0.0000      	      
 4126                           	297                            	327                            	170.0000    	102.0000    	3.5000      	0.0000      	      
 4164                           	191                            	189                            	160.0000    	97.0000     	0.0300      	0.0000      	      
 4143                           	208                            	229                            	270.0000    	102.0000    	3.0000      	0.0000      	      
 4127                           	167                            	1214                           	260.0000    	97.0000     	0.0300      	0.0000      	      
 4140                           	294                            	307                            	76.0000     	102.0000    	3.5000      	0.0000      	      
 4152                           	1222                           	187                            	240.0000    	319.0000    	1.8000      	0.0000      	      
 4151                           	1149                           	1144                           	200.0000    	102.0000    	3.2000      	0.0000      	      
 4153                           	1449                           	1493                           	160.0000    	229.0000    	1.0000      	0.0000      	      
 4157                           	293                            	292                            	230.0000    	102.0000    	3.2000      	0.0000      	      
 4121                           	258                            	261                            	110.0000    	152.0000    	3.5000      	0.0000      	      
 4141                           	1122                           	465                            	1.0000      	80.0000     	0.0300      	0.0000      	      
 4117                           	273                            	274                            	150.0000    	102.0000    	3.0000      	0.0000      	      
 4154                           	1121                           	1191                           	550.0000    	400.0000    	0.5000      	0.0000      	      
 4179                           	110                            	134                            	320.0000    	152.0000    	3.7000      	0.0000      	      
 4180                           	1071                           	1099                           	180.0000    	102.0000    	3.2000      	0.0000      	      
 4181                           	1019                           	1012                           	25.0000     	144.0000    	1.3000      	0.0000      	      
 4125                           	274                            	222                            	370.0000    	102.0000    	3.0000      	0.0000      	      
 4150                           	1151                           	296                            	300.0000    	296.0000    	21.0000     	0.0000      	      
 4168                           	1055                           	1121                           	600.0000    	400.0000    	0.5000      	0.0000      	      
 4169                           	211                            	1104                           	270.0000    	152.0000    	3.0000      	0.0000      	      
 4189                           	880                            	910                            	240.0000    	236.0000    	10.0000     	0.0000      	      
 4190                           	1082                           	1139                           	520.0000    	152.0000    	3.2000      	0.0000      	      
 4183                           	1063                           	1071                           	240.0000    	102.0000    	3.2000      	0.0000      	      
 4175                           	1915                           	374                            	330.0000    	152.0000    	3.5000      	0.0000      	      
 4191                           	1112                           	1099                           	200.0000    	102.0000    	3.2000      	0.0000      	      
 4166                           	1133                           	551                            	320.0000    	361.0000    	9.5000      	0.0000      	      
 4192                           	1575                           	1584                           	270.0000    	152.0000    	4.5000      	0.0000      	      
 4172                           	345                            	362                            	1.0000      	150.0000    	0.0300      	0.0000      	      
 4194                           	1103                           	1140                           	200.0000    	236.0000    	6.2500      	0.0000      	      
 4171                           	1457                           	1473                           	270.0000    	152.0000    	4.5000      	0.0000      	      
 4193                           	1082                           	1123                           	380.0000    	102.0000    	3.0000      	0.0000      	      
 4156                           	1119                           	1125                           	120.0000    	102.0000    	3.0000      	0.0000      	      
 4195                           	1082                           	1071                           	190.0000    	102.0000    	3.2000      	0.0000      	      
 4196                           	1071                           	1067                           	210.0000    	102.0000    	3.2000      	0.0000      	      
 4187                           	208                            	1082                           	320.0000    	152.0000    	3.2000      	0.0000      	      
 4820                           	1788                           	1252                           	260.0000    	102.0000    	3.0000      	0.0000      	      
 4813                           	1787                           	1797                           	78.0000     	110.0000    	0.0300      	0.0000      	      
 4817                           	1776                           	1798                           	1.0000      	236.0000    	0.1000      	0.0000      	      
 4814                           	1262                           	1372                           	470.0000    	152.0000    	4.0000      	0.0000      	      
 4815                           	1751                           	1734                           	80.0000     	152.0000    	4.0000      	0.0000      	      
 4797                           	1782                           	1803                           	220.0000    	229.0000    	15.0000     	0.0000      	      
 4809                           	1779                           	1793                           	80.0000     	152.0000    	4.0100      	0.0000      	      
 4821                           	1258                           	1294                           	289.0000    	152.0000    	3.0000      	0.0000      	      
 4803                           	1800                           	1245                           	1.0000      	152.0000    	4.0000      	0.0000      	      
 4804                           	1260                           	1261                           	500.0000    	152.0000    	4.0000      	0.0000      	      
 4806                           	1804                           	1872                           	400.0000    	102.0000    	4.0000      	0.0000      	      
 4807                           	1249                           	1729                           	140.0000    	102.0000    	4.0000      	0.0000      	      
 4808                           	1786                           	1244                           	80.0000     	152.0000    	4.0000      	0.0000      	      
 4845                           	1758                           	1786                           	100.0000    	152.0000    	4.0000      	0.0000      	      
 4799                           	1773                           	1774                           	1.0000      	300.0000    	0.1000      	0.0000      	      
 4798                           	1303                           	1295                           	140.0000    	102.0000    	3.5000      	0.0000      	      
 4822                           	1282                           	1331                           	113.0000    	152.0000    	5.0000      	0.0000      	      
 4823                           	1284                           	1332                           	270.0000    	106.0000    	2.2500      	0.0000      	      
 4800                           	1778                           	1291                           	410.0000    	152.0000    	4.0000      	0.0000      	      
 4852                           	1800                           	1779                           	180.0000    	152.0000    	4.0000      	0.0000      	      
 4853                           	1757                           	1737                           	180.0000    	152.0000    	4.0000      	0.0000      	      
 4854                           	1718                           	1976                           	2290.0000   	464.0000    	14.0000     	0.0000      	      
 4855                           	1748                           	1243                           	210.0000    	152.0000    	4.0000      	0.0000      	      
 4851                           	1766                           	1710                           	240.0000    	152.0000    	4.0000      	0.0000      	      
 4841                           	1701                           	1715                           	1.0000      	152.0000    	4.0000      	0.0000      	      
 4796                           	1793                           	1806                           	1.0000      	152.0000    	4.0000      	0.0000      	      
 4838                           	1773                           	1382                           	450.0000    	152.0000    	4.0000      	0.0000      	      
 4828                           	1731                           	1772                           	400.0000    	152.0000    	3.0000      	0.0000      	      
 4839                           	1761                           	1733                           	291.0000    	97.0000     	0.3000      	0.0000      	      
 4832                           	1760                           	1756                           	90.0000     	152.0000    	4.0000      	0.0000      	      
 4833                           	1722                           	1725                           	92.0000     	110.0000    	0.0300      	0.0000      	      
 4835                           	1753                           	1762                           	80.0000     	229.0000    	1.0000      	0.0000      	      
 4836                           	1793                           	1796                           	110.0000    	152.0000    	4.0000      	0.0000      	      
 4831                           	1770                           	1343                           	730.0000    	464.0000    	20.0000     	0.0000      	      
 4856                           	1775                           	1802                           	90.0000     	152.0000    	4.0000      	0.0000      	      
 4857                           	1764                           	1767                           	1.0000      	150.0000    	0.0300      	0.0000      	      
 4858                           	1757                           	1743                           	160.0000    	102.0000    	4.0000      	0.0000      	      
 4859                           	1754                           	1274                           	270.0000    	319.0000    	6.2500      	0.0000      	      
 4861                           	1752                           	1762                           	70.0000     	319.0000    	0.3700      	0.0000      	      
 4846                           	1742                           	1269                           	350.0000    	310.0000    	5.0000      	0.0000      	      
 4802                           	1283                           	1351                           	320.0000    	236.0000    	2.0000      	0.0000      	      
 4801                           	1259                           	1262                           	110.0000    	152.0000    	4.0000      	0.0000      	      
 4818                           	1736                           	1794                           	140.0000    	102.0000    	8.0000      	0.0000      	      
 4849                           	1759                           	1773                           	90.0000     	152.0000    	4.0000      	0.0000      	      
 4850                           	1737                           	1726                           	150.0000    	152.0000    	4.0000      	0.0000      	      
 4848                           	1744                           	1751                           	340.0000    	152.0000    	4.0000      	0.0000      	      
 4847                           	1732                           	1318                           	359.0000    	159.0000    	0.0300      	0.0000      	      
 4866                           	1746                           	1693                           	280.0000    	152.0000    	3.0000      	0.0000      	      
 4867                           	1728                           	1756                           	90.0000     	152.0000    	4.0000      	0.0000      	      
 4884                           	1711                           	1714                           	1.0000      	150.0000    	0.0300      	0.0000      	      
 4862                           	1798                           	1283                           	179.0000    	236.0000    	2.0000      	0.0000      	      
 4863                           	1259                           	1378                           	520.0000    	152.0000    	4.0000      	0.0000      	      
 4888                           	1748                           	1759                           	90.0000     	152.0000    	4.0000      	0.0000      	      
 4881                           	1771                           	1745                           	510.0000    	102.0000    	8.0000      	0.0000      	      
 4879                           	1772                           	1252                           	270.0000    	310.0000    	15.0000     	0.0000      	      
 4896                           	1789                           	1741                           	180.0000    	229.0000    	1.0000      	0.0000      	      
 4898                           	1749                           	2015                           	1390.0000   	464.0000    	25.0000     	0.0000      	      
 4868                           	1741                           	1744                           	1.0000      	152.0000    	4.0000      	0.0000      	      
 4897                           	1731                           	1750                           	210.0000    	152.0000    	3.0000      	0.0000      	      
 4894                           	1730                           	1748                           	189.0000    	152.0000    	4.0000      	0.0000      	      
 4860                           	1734                           	1692                           	160.0000    	152.0000    	4.0000      	0.0000      	      
 4890                           	1760                           	1728                           	110.0000    	152.0000    	4.0000      	0.0000      	      
 4891                           	1750                           	1788                           	200.0000    	102.0000    	3.0000      	0.0000      	      
 4892                           	1746                           	1696                           	280.0000    	310.0000    	15.0000     	0.0000      	      
 4889                           	1740                           	1758                           	190.0000    	152.0000    	4.0000      	0.0000      	      
 4842                           	1747                           	1739                           	180.0000    	152.0000    	8.0000      	0.0000      	      
 4824                           	1743                           	1726                           	250.0000    	152.0000    	4.0000      	0.0000      	      
 4825                           	1790                           	1757                           	100.0000    	152.0000    	4.0000      	0.0000      	      
 4871                           	1755                           	1770                           	470.0000    	152.0000    	4.0000      	0.0000      	      
 4900                           	1719                           	1696                           	480.0000    	387.0000    	20.0000     	0.0000      	      
 4869                           	1754                           	1274                           	270.0000    	236.0000    	6.2500      	0.0000      	      
 4870                           	1727                           	1818                           	180.0000    	152.0000    	4.0000      	0.0000      	      
 4880                           	1749                           	1770                           	90.0000     	464.0000    	25.0000     	0.0000      	      
 4882                           	1764                           	1711                           	270.0000    	152.0000    	4.0000      	0.0000      	      
 4914                           	1706                           	1729                           	90.0000     	102.0000    	4.0000      	0.0000      	      
 4874                           	1709                           	1752                           	230.0000    	319.0000    	0.3700      	0.0000      	      
 4883                           	1753                           	1752                           	80.0000     	319.0000    	0.3700      	0.0000      	      
 4915                           	1718                           	1730                           	1.0000      	150.0000    	4.0000      	0.0000      	      
 4917                           	1712                           	1849                           	150.0000    	152.0000    	4.0000      	0.0000      	      
 4878                           	1718                           	1732                           	1.0000      	150.0000    	4.0000      	0.0000      	      
 4927                           	1822                           	1827                           	80.0000     	152.0000    	4.0000      	0.0000      	      
 4928                           	1820                           	1703                           	110.0000    	152.0000    	4.0000      	0.0000      	      
 4876                           	1720                           	1741                           	190.0000    	229.0000    	1.0000      	0.0000      	      
 4939                           	1810                           	1808                           	1.0000      	387.0000    	30.0000     	0.0000      	      
 4905                           	1809                           	1819                           	80.0000     	102.0000    	8.0000      	0.0000      	      
 4937                           	1738                           	1717                           	220.0000    	152.0000    	4.0000      	0.0000      	      
 4906                           	1871                           	1820                           	170.0000    	152.0000    	4.0000      	0.0000      	      
 4936                           	1695                           	1874                           	90.0000     	254.0000    	8.0000      	0.0000      	      
 4934                           	1818                           	1864                           	170.0000    	152.0000    	4.0000      	0.0000      	      
 4886                           	1737                           	1827                           	120.0000    	152.0000    	4.0000      	0.0000      	      
 4907                           	1723                           	1727                           	180.0000    	152.0000    	4.0000      	0.0000      	      
 4909                           	1758                           	1760                           	150.0000    	152.0000    	4.0000      	0.0000      	      
 4910                           	1695                           	1756                           	509.0000    	152.0000    	4.0000      	0.0000      	      
 4908                           	1718                           	1585                           	2530.0000   	474.0000    	9.0000      	0.0000      	      
 4887                           	1739                           	1736                           	220.0000    	152.0000    	8.0000      	0.0000      	      
 4901                           	1712                           	1765                           	240.0000    	152.0000    	4.0000      	0.0000      	      
 4902                           	1823                           	1812                           	180.0000    	102.0000    	4.0000      	0.0000      	      
 4913                           	1697                           	1718                           	1.0000      	150.0000    	4.0000      	0.0000      	      
 4926                           	1719                           	1780                           	240.0000    	152.0000    	8.0000      	0.0000      	      
 4912                           	1746                           	1772                           	100.0000    	310.0000    	15.0000     	0.0000      	      
 4920                           	1710                           	1705                           	110.0000    	152.0000    	4.0000      	0.0000      	      
 4921                           	1734                           	1727                           	150.0000    	152.0000    	4.0000      	0.0000      	      
 4922                           	1720                           	1723                           	1.0000      	152.0000    	4.5000      	0.0000      	      
 4932                           	1717                           	1702                           	60.0000     	152.0000    	4.0000      	0.0000      	      
 4935                           	1708                           	1763                           	240.0000    	152.0000    	4.0000      	0.0000      	      
 4964                           	1874                           	1845                           	160.0000    	102.0000    	4.0000      	0.0000      	      
 4965                           	1694                           	1742                           	280.0000    	152.0000    	5.0000      	0.0000      	      
 4925                           	1712                           	1765                           	250.0000    	152.0000    	4.0000      	0.0000      	      
 4885                           	1719                           	1750                           	90.0000     	152.0000    	8.0000      	0.0000      	      
 4966                           	1871                           	1862                           	160.0000    	152.0000    	4.0000      	0.0000      	      
 4967                           	1694                           	1713                           	80.0000     	319.0000    	15.0000     	0.0000      	      
 4971                           	1692                           	1871                           	170.0000    	152.0000    	4.0000      	0.0000      	      
 4968                           	1858                           	1856                           	173.0000    	101.0000    	0.0300      	0.0000      	      
 4969                           	1870                           	1859                           	170.0000    	152.0000    	4.0000      	0.0000      	      
 4972                           	1707                           	1823                           	150.0000    	152.0000    	4.0000      	0.0000      	      
 4954                           	1829                           	1865                           	290.0000    	152.0000    	8.0000      	0.0000      	      
 4953                           	1817                           	1822                           	180.0000    	152.0000    	4.0000      	0.0000      	      
 4933                           	1711                           	1859                           	140.0000    	152.0000    	4.0000      	0.0000      	      
 4952                           	1693                           	1731                           	180.0000    	152.0000    	3.0000      	0.0000      	      
 4940                           	1860                           	1720                           	300.0000    	229.0000    	1.0000      	0.0000      	      
 4951                           	1839                           	1840                           	90.0000     	152.0000    	4.0000      	0.0000      	      
 4943                           	1880                           	1846                           	190.0000    	97.0000     	0.3000      	0.0000      	      
 4944                           	1828                           	1845                           	160.0000    	152.0000    	4.0000      	0.0000      	      
 4948                           	1867                           	1735                           	260.0000    	152.0000    	8.0000      	0.0000      	      
 4949                           	1821                           	1854                           	320.0000    	152.0000    	4.0000      	0.0000      	      
 4961                           	1807                           	1709                           	150.0000    	159.0000    	0.3700      	0.0000      	      
 4947                           	2036                           	2023                           	160.0000    	152.0000    	7.0000      	0.0000      	      
 4963                           	1827                           	1830                           	370.0000    	152.0000    	4.0000      	0.0000      	      
 4957                           	1855                           	1856                           	40.0000     	150.0000    	0.0300      	0.0000      	      
 4973                           	1873                           	1861                           	100.0000    	152.0000    	8.0000      	0.0000      	      
 4977                           	1832                           	2046                           	170.0000    	159.0000    	0.3700      	0.0000      	      
 4976                           	1726                           	1717                           	160.0000    	152.0000    	4.0000      	0.0000      	      
 4924                           	1724                           	1833                           	430.0000    	102.0000    	4.0000      	0.0000      	      
 4955                           	1694                           	1753                           	310.0000    	229.0000    	15.0000     	0.0000      	      
 4956                           	1815                           	1813                           	1.0000      	300.0000    	0.1000      	0.0000      	      
 4974                           	1868                           	1694                           	60.0000     	310.0000    	15.0000     	0.0000      	      
 4958                           	1702                           	1811                           	130.0000    	229.0000    	1.0000      	0.0000      	      
 4975                           	1713                           	1753                           	230.0000    	310.0000    	3.5000      	0.0000      	      
 4918                           	1708                           	1763                           	240.0000    	152.0000    	4.0000      	0.0000      	      
 5001                           	1859                           	1848                           	150.0000    	152.0000    	4.0000      	0.0000      	      
 5002                           	2045                           	2013                           	240.0000    	152.0000    	5.0000      	0.0000      	      
 4980                           	518                            	525                            	1.0000      	100.0000    	0.0300      	0.0000      	      
 4983                           	1842                           	1828                           	160.0000    	102.0000    	4.0000      	0.0000      	      
 4984                           	1868                           	1807                           	110.0000    	152.0000    	5.0000      	0.0000      	      
 5013                           	355                            	361                            	15.0000     	144.0000    	0.0300      	0.0000      	      
 4979                           	1823                           	1758                           	330.0000    	152.0000    	4.0000      	0.0000      	      
 4999                           	1857                           	1866                           	1.0000      	150.0000    	0.0300      	0.0000      	      
 4941                           	1821                           	1707                           	190.0000    	152.0000    	4.0000      	0.0000      	      
 4988                           	1878                           	2018                           	310.0000    	97.0000     	0.3000      	0.0000      	      
 4989                           	1703                           	1257                           	260.0000    	152.0000    	4.0000      	0.0000      	      
 4987                           	1851                           	1712                           	150.0000    	152.0000    	4.0000      	0.0000      	      
 4991                           	1830                           	2041                           	250.0000    	152.0000    	4.0000      	0.0000      	      
 4992                           	1455                           	1485                           	350.0000    	106.0000    	2.0000      	0.0000      	      
 4993                           	1815                           	1826                           	1.0000      	159.0000    	8.0000      	0.0000      	      
 4962                           	1713                           	1709                           	110.0000    	152.0000    	5.0000      	0.0000      	      
 4981                           	2043                           	1842                           	190.0000    	102.0000    	4.0000      	0.0000      	      
 4994                           	2034                           	1832                           	210.0000    	152.0000    	5.0000      	0.0000      	      
 4978                           	1862                           	1864                           	150.0000    	152.0000    	4.0000      	0.0000      	      
 4959                           	1818                           	1692                           	230.0000    	152.0000    	4.0000      	0.0000      	      
 5017                           	1846                           	1852                           	90.0000     	152.0000    	8.0000      	0.0000      	      
 5000                           	1812                           	1740                           	280.0000    	152.0000    	4.0000      	0.0000      	      
 4990                           	1861                           	1846                           	120.0000    	152.0000    	8.0000      	0.0000      	      
 5010                           	1837                           	1880                           	100.0000    	144.0000    	0.3000      	0.0000      	      
 5003                           	1811                           	1817                           	80.0000     	152.0000    	4.0000      	0.0000      	      
 5004                           	2046                           	1807                           	210.0000    	319.0000    	0.3700      	0.0000      	      
 5005                           	1836                           	2014                           	320.0000    	152.0000    	8.0000      	0.0000      	      
 5006                           	1845                           	1823                           	270.0000    	152.0000    	4.0000      	0.0000      	      
 5045                           	1045                           	1096                           	100.0000    	150.0000    	0.0300      	0.0000      	      
 5054                           	533                            	549                            	1.0000      	200.0000    	0.1000      	0.0000      	      
 5011                           	2033                           	1700                           	520.0000    	152.0000    	4.0000      	0.0000      	      
 4996                           	1824                           	1733                           	290.0000    	110.0000    	0.0300      	0.0000      	      
 4997                           	1832                           	1868                           	190.0000    	310.0000    	15.0000     	0.0000      	      
 5015                           	1869                           	1735                           	270.0000    	229.0000    	15.0000     	0.0000      	      
 5030                           	1463                           	1458                           	230.0000    	106.0000    	2.5000      	0.0000      	      
 5035                           	1425                           	1465                           	170.0000    	159.0000    	2.5000      	0.0000      	      
 5041                           	615                            	1156                           	120.0000    	319.0000    	2.0000      	0.0000      	      
 5042                           	320                            	366                            	390.0000    	310.0000    	20.0000     	0.0000      	      
 5020                           	351                            	443                            	1390.0000   	474.0000    	2.0000      	0.0000      	      
 5024                           	503                            	484                            	140.0000    	159.0000    	2.0000      	0.0000      	      
 5007                           	2036                           	1998                           	420.0000    	152.0000    	7.0000      	0.0000      	      
 5014                           	1917                           	373                            	160.0000    	152.0000    	3.5000      	0.0000      	      
 5022                           	373                            	368                            	340.0000    	159.0000    	1.7500      	0.0000      	      
 5012                           	1458                           	1427                           	240.0000    	152.0000    	4.0000      	0.0000      	      
 5028                           	717                            	729                            	1.0000      	229.0000    	20.0000     	0.0000      	      
 5029                           	274                            	222                            	370.0000    	102.0000    	3.0000      	0.0000      	      
 5032                           	1928                           	499                            	150.0000    	97.0000     	0.3000      	0.0000      	      
 5043                           	112                            	285                            	320.0000    	102.0000    	3.5000      	0.0000      	      
 5044                           	1239                           	1219                           	220.0000    	152.0000    	3.0000      	0.0000      	      
 5031                           	1454                           	1469                           	1.0000      	102.0000    	0.0500      	0.0000      	      
 5050                           	1237                           	1230                           	180.0000    	102.0000    	3.0000      	0.0000      	      
 5039                           	1078                           	1135                           	250.0000    	152.0000    	3.0000      	0.0000      	      
 5021                           	1156                           	1163                           	70.0000     	152.0000    	3.0000      	0.0000      	      
 5048                           	344                            	334                            	230.0000    	152.0000    	3.5000      	0.0000      	      
 5040                           	1456                           	1449                           	400.0000    	152.0000    	4.5000      	0.0000      	      
 5046                           	512                            	564                            	190.0000    	152.0000    	3.5000      	0.0000      	      
 5053                           	1454                           	1474                           	330.0000    	310.0000    	3.5000      	0.0000      	      
 5026                           	371                            	373                            	380.0000    	144.0000    	3.5000      	0.0000      	      
 5062                           	1230                           	1238                           	140.0000    	102.0000    	3.0000      	0.0000      	      
 5052                           	374                            	384                            	169.0000    	152.0000    	3.5000      	0.0000      	      
 5027                           	1927                           	509                            	410.0000    	102.0000    	3.0000      	0.0000      	      
 5086                           	1169                           	598                            	160.0000    	236.0000    	6.2500      	0.0000      	      
 5025                           	341                            	375                            	320.0000    	152.0000    	3.5000      	0.0000      	      
 5019                           	1209                           	1132                           	240.0000    	106.0000    	2.0000      	0.0000      	      
 5091                           	1226                           	1045                           	42.0000     	150.0000    	0.0300      	0.0000      	      
 5037                           	1459                           	1485                           	110.0000    	236.0000    	2.0000      	0.0000      	      
 5087                           	501                            	550                            	530.0000    	102.0000    	3.5000      	0.0000      	      
 5093                           	512                            	506                            	230.0000    	152.0000    	3.5000      	0.0000      	      
 5055                           	350                            	291                            	320.0000    	102.0000    	3.0000      	0.0000      	      
 5095                           	865                            	875                            	110.0000    	150.0000    	0.0300      	0.0000      	      
 5077                           	1930                           	516                            	110.0000    	152.0000    	3.5000      	0.0000      	      
 5078                           	1432                           	1474                           	719.0000    	464.0000    	6.5000      	0.0000      	      
 5064                           	1188                           	3005                           	1.0000      	80.0000     	0.0300      	0.0000      	      
 5080                           	639                            	1170                           	340.0000    	152.0000    	3.0000      	0.0000      	      
 5057                           	1184                           	191                            	160.0000    	97.0000     	0.0300      	0.0000      	      
 5058                           	524                            	503                            	149.0000    	159.0000    	2.0000      	0.0000      	      
 5059                           	1452                           	1478                           	140.0000    	152.0000    	4.5000      	0.0000      	      
 5060                           	1135                           	1239                           	210.0000    	102.0000    	3.0000      	0.0000      	      
 5061                           	1437                           	1448                           	90.0000     	152.0000    	3.5000      	0.0000      	      
 5065                           	1448                           	1461                           	70.0000     	152.0000    	4.5000      	0.0000      	      
 5088                           	326                            	378                            	210.0000    	152.0000    	3.5000      	0.0000      	      
 5070                           	1446                           	1454                           	280.0000    	310.0000    	3.5000      	0.0000      	      
 5083                           	347                            	324                            	90.0000     	229.0000    	3.5000      	0.0000      	      
 5089                           	333                            	342                            	1.0000      	150.0000    	0.0300      	0.0000      	      
 5081                           	1428                           	1444                           	140.0000    	152.0000    	4.5000      	0.0000      	      
 5082                           	1436                           	1446                           	110.0000    	310.0000    	3.5000      	0.0000      	      
 5094                           	1459                           	1455                           	200.0000    	97.0000     	0.3000      	0.0000      	      
 5105                           	1209                           	1220                           	120.0000    	106.0000    	2.0000      	0.0000      	      
 5071                           	759                            	1113                           	370.0000    	102.0000    	3.0000      	0.0000      	      
 5100                           	1217                           	521                            	260.0000    	106.0000    	2.2500      	0.0000      	      
 5072                           	539                            	526                            	90.0000     	310.0000    	10.0000     	0.0000      	      
 5104                           	1234                           	740                            	310.0000    	102.0000    	3.0000      	0.0000      	      
 5090                           	526                            	471                            	1.0000      	150.0000    	0.0300      	0.0000      	      
 5135                           	1075                           	563                            	140.0000    	150.0000    	0.0300      	0.0000      	      
 5101                           	735                            	380                            	160.0000    	144.0000    	0.3000      	0.0000      	      
 5121                           	744                            	587                            	160.0000    	159.0000    	2.0000      	0.0000      	      
 5122                           	296                            	1177                           	260.0000    	159.0000    	2.0000      	0.0000      	      
 5102                           	155                            	614                            	1.0000      	150.0000    	0.0300      	0.0000      	      
 5114                           	1191                           	1211                           	110.0000    	152.0000    	20.0000     	0.0000      	      
 5096                           	321                            	1912                           	1.0000      	300.0000    	0.1000      	0.0000      	      
 5132                           	723                            	1180                           	170.0000    	296.0000    	2.0000      	0.0000      	      
 5107                           	1928                           	537                            	120.0000    	144.0000    	0.3000      	0.0000      	      
 5108                           	1194                           	715                            	180.0000    	102.0000    	3.0000      	0.0000      	      
 5109                           	332                            	1199                           	220.0000    	102.0000    	3.0000      	0.0000      	      
 5110                           	502                            	1177                           	320.0000    	144.0000    	0.3000      	0.0000      	      
 5131                           	155                            	3006                           	1.0000      	918.0000    	0.1000      	0.0000      	      
 5124                           	1234                           	740                            	550.0000    	102.0000    	3.0000      	0.0000      	      
 5125                           	1132                           	1214                           	230.0000    	106.0000    	2.0000      	0.0000      	      
 5126                           	1226                           	1145                           	118.0000    	150.0000    	0.0300      	0.0000      	      
 5127                           	1202                           	715                            	180.0000    	144.0000    	0.3000      	0.0000      	      
 5128                           	1220                           	1132                           	360.0000    	106.0000    	2.0000      	0.0000      	      
 5098                           	696                            	1197                           	250.0000    	106.0000    	2.0000      	0.0000      	      
 5097                           	878                            	784                            	590.0000    	423.0000    	0.5000      	0.0000      	      
 5099                           	1200                           	325                            	210.0000    	102.0000    	3.0000      	0.0000      	      
 5144                           	337                            	1212                           	55.0000     	288.0000    	0.1000      	0.0000      	      
 5145                           	1201                           	1190                           	115.0000    	319.0000    	21.0000     	0.0000      	      
 5146                           	551                            	1162                           	280.0000    	152.0000    	3.0000      	0.0000      	      
 5137                           	1181                           	1151                           	230.0000    	144.0000    	0.3000      	0.0000      	      
 5148                           	1158                           	1166                           	260.0000    	102.0000    	3.0000      	0.0000      	      
 5170                           	1938                           	523                            	90.0000     	152.0000    	3.0000      	0.0000      	      
 5167                           	1235                           	749                            	220.0000    	106.0000    	2.2500      	0.0000      	      
 5136                           	998                            	1224                           	210.0000    	102.0000    	3.0000      	0.0000      	      
 5130                           	1225                           	735                            	290.0000    	144.0000    	0.3000      	0.0000      	      
 5138                           	1165                           	1166                           	270.0000    	102.0000    	3.0000      	0.0000      	      
 5156                           	1215                           	1223                           	180.0000    	110.0000    	0.0300      	0.0000      	      
 5157                           	1195                           	792                            	240.0000    	144.0000    	0.3000      	0.0000      	      
 5158                           	380                            	1180                           	140.0000    	144.0000    	0.3000      	0.0000      	      
 5111                           	538                            	1181                           	280.0000    	159.0000    	0.3000      	0.0000      	      
 5161                           	1180                           	615                            	580.0000    	296.0000    	2.0000      	0.0000      	      
 5123                           	1075                           	354                            	127.0000    	101.0000    	0.0300      	0.0000      	      
 5163                           	837                            	862                            	138.0000    	150.0000    	0.0300      	0.0000      	      
 5164                           	1191                           	1194                           	290.0000    	102.0000    	3.0000      	0.0000      	      
 5160                           	1145                           	1096                           	189.0000    	101.0000    	0.0300      	0.0000      	      
 5119                           	778                            	1231                           	240.0000    	152.0000    	3.0000      	0.0000      	      
 5116                           	1211                           	1234                           	250.0000    	102.0000    	3.0000      	0.0000      	      
 5075                           	515                            	1926                           	90.0000     	144.0000    	0.3000      	0.0000      	      
 5172                           	332                            	1189                           	235.0000    	102.0000    	3.0000      	0.0000      	      
 5140                           	521                            	1185                           	220.0000    	106.0000    	2.2600      	0.0000      	      
 5141                           	1211                           	1232                           	360.0000    	152.0000    	20.0000     	0.0000      	      
 5149                           	370                            	587                            	210.0000    	144.0000    	0.3000      	0.0000      	      
 5162                           	1191                           	155                            	580.0000    	400.0000    	0.5000      	0.0000      	      
 5152                           	1215                           	1096                           	115.0000    	150.0000    	0.0300      	0.0000      	      
 5150                           	1142                           	1171                           	290.0000    	97.0000     	0.3000      	0.0000      	      
 5174                           	1200                           	555                            	280.0000    	102.0000    	3.0000      	0.0000      	      
 5197                           	1196                           	680                            	164.0000    	110.0000    	0.0300      	0.0000      	      
 5153                           	468                            	466                            	419.0000    	152.0000    	3.0000      	0.0000      	      
 5180                           	1198                           	1183                           	280.0000    	152.0000    	3.5000      	0.0000      	      
 5210                           	1177                           	1195                           	280.0000    	144.0000    	0.3000      	0.0000      	      
 5211                           	1164                           	1153                           	170.0000    	106.0000    	2.2500      	0.0000      	      
 5168                           	1229                           	739                            	81.0000     	209.0000    	0.1000      	0.0000      	      
 5154                           	372                            	744                            	290.0000    	152.0000    	3.0000      	0.0000      	      
 5186                           	1182                           	520                            	17.0000     	314.0000    	0.1000      	0.0000      	      
 5147                           	325                            	1189                           	220.0000    	110.0000    	0.0300      	0.0000      	      
 5196                           	1211                           	1227                           	300.0000    	102.0000    	3.0000      	0.0000      	      
 5202                           	330                            	329                            	210.0000    	152.0000    	3.2000      	0.0000      	      
 5203                           	1171                           	500                            	270.0000    	102.0000    	3.0000      	0.0000      	      
 5204                           	1142                           	500                            	300.0000    	102.0000    	3.0000      	0.0000      	      
 5205                           	896                            	941                            	220.0000    	106.0000    	10.0000     	0.0000      	      
 5195                           	1136                           	271                            	1.0000      	150.0000    	0.0300      	0.0000      	      
 5173                           	767                            	611                            	180.0000    	106.0000    	2.0000      	0.0000      	      
 5209                           	545                            	544                            	75.0000     	101.0000    	0.0300      	0.0000      	      
 5194                           	515                            	586                            	190.0000    	144.0000    	0.3000      	0.0000      	      
 5187                           	1173                           	766                            	190.0000    	102.0000    	20.0000     	0.0000      	      
 5208                           	1046                           	1048                           	470.0000    	102.0000    	3.0000      	0.0000      	      
 5188                           	1190                           	1117                           	26.0000     	146.0000    	0.0300      	0.0000      	      
 5189                           	1927                           	579                            	360.0000    	102.0000    	3.0000      	0.0000      	      
 5192                           	289                            	1179                           	230.0000    	102.0000    	3.0000      	0.0000      	      
 5193                           	106                            	160                            	310.0000    	229.0000    	3.5000      	0.0000      	      
 5178                           	735                            	747                            	190.0000    	144.0000    	0.3000      	0.0000      	      
 5179                           	1208                           	1215                           	33.0000     	146.0000    	0.0300      	0.0000      	      
 5175                           	1117                           	1226                           	100.0000    	146.0000    	0.0300      	0.0000      	      
 5227                           	321                            	323                            	1.0000      	300.0000    	0.1000      	0.0000      	      
 5226                           	238                            	1896                           	466.0000    	146.0000    	0.0300      	0.0000      	      
 5228                           	335                            	318                            	1.0000      	150.0000    	0.0300      	0.0000      	      
 5225                           	261                            	257                            	160.0000    	102.0000    	3.2000      	0.0000      	      
 5232                           	513                            	494                            	190.0000    	152.0000    	3.0000      	0.0000      	      
 5185                           	1424                           	1416                           	160.0000    	152.0000    	4.5000      	0.0000      	      
 5229                           	1110                           	1103                           	180.0000    	106.0000    	2.2500      	0.0000      	      
 5230                           	371                            	405                            	170.0000    	102.0000    	3.2000      	0.0000      	      
 5231                           	291                            	210                            	180.0000    	102.0000    	3.0000      	0.0000      	      
 5238                           	241                            	338                            	290.0000    	159.0000    	2.0000      	0.0000      	      
 5240                           	1631                           	21                             	300.0000    	229.0000    	3.5000      	0.0000      	      
 5242                           	1143                           	1171                           	340.0000    	102.0000    	3.0000      	0.0000      	      
 5244                           	300                            	284                            	150.0000    	152.0000    	3.5000      	0.0000      	      
 5245                           	1158                           	289                            	340.0000    	102.0000    	3.0000      	0.0000      	      
 5246                           	213                            	204                            	250.0000    	152.0000    	3.5000      	0.0000      	      
 5214                           	302                            	345                            	160.0000    	152.0000    	3.5000      	0.0000      	      
 5181                           	165                            	121                            	420.0000    	229.0000    	3.5000      	0.0000      	      
 5251                           	1136                           	246                            	130.0000    	319.0000    	0.8000      	0.0000      	      
 5252                           	1144                           	1178                           	120.0000    	152.0000    	3.2000      	0.0000      	      
 5234                           	536                            	515                            	270.0000    	97.0000     	0.3000      	0.0000      	      
 5236                           	371                            	1917                           	220.0000    	152.0000    	3.5000      	0.0000      	      
 5223                           	336                            	339                            	350.0000    	102.0000    	3.2000      	0.0000      	      
 5224                           	188                            	99                             	200.0000    	152.0000    	3.5000      	0.0000      	      
 5219                           	320                            	314                            	639.0000    	319.0000    	2.2500      	0.0000      	      
 5218                           	882                            	908                            	240.0000    	102.0000    	3.5000      	0.0000      	      
 5222                           	363                            	299                            	340.0000    	102.0000    	3.0000      	0.0000      	      
 5220                           	514                            	531                            	1.0000      	150.0000    	0.0300      	0.0000      	      
 5270                           	1424                           	1449                           	190.0000    	229.0000    	1.0000      	0.0000      	      
 5221                           	3001                           	41                             	20.0000     	500.0000    	0.5000      	0.0000      	      
 5317                           	1055                           	1077                           	290.0000    	102.0000    	3.0000      	0.0000      	      
 5201                           	1164                           	1240                           	260.0000    	236.0000    	6.2500      	0.0000      	      
 5200                           	1173                           	1178                           	250.0000    	152.0000    	3.2000      	0.0000      	      
 5216                           	1053                           	1029                           	170.0000    	236.0000    	10.0000     	0.0000      	      
 5257                           	1026                           	532                            	1.0000      	917.0000    	1.0000      	0.0000      	      
 5241                           	1095                           	1136                           	450.0000    	152.0000    	3.0000      	0.0000      	      
 5277                           	1461                           	1450                           	190.0000    	102.0000    	4.5000      	0.0000      	      
 5281                           	1004                           	1005                           	210.0000    	360.0000    	3.2000      	0.0000      	      
 5283                           	1037                           	1068                           	179.0000    	236.0000    	6.2600      	0.0000      	      
 5249                           	287                            	1910                           	90.0000     	159.0000    	1.7500      	0.0000      	      
 5267                           	1048                           	1047                           	250.0000    	102.0000    	3.0000      	0.0000      	      
 5285                           	1029                           	1063                           	180.0000    	102.0000    	3.2000      	0.0000      	      
 5290                           	1068                           	1103                           	220.0000    	236.0000    	6.2500      	0.0000      	      
 5292                           	1004                           	1029                           	240.0000    	236.0000    	10.0000     	0.0000      	      
 5261                           	1036                           	1039                           	1.0000      	152.0000    	2.0000      	0.0000      	      
 5264                           	1067                           	1032                           	330.0000    	102.0000    	3.2000      	0.0000      	      
 5266                           	1064                           	1087                           	320.0000    	361.0000    	9.5000      	0.0000      	      
 5269                           	1005                           	1038                           	140.0000    	152.0000    	3.2000      	0.0000      	      
 5293                           	1021                           	1037                           	1.0000      	200.0000    	0.1000      	0.0000      	      
 5319                           	428                            	1081                           	5.0000      	300.0000    	0.1000      	0.0000      	      
 5271                           	532                            	1100                           	810.0000    	229.0000    	3.0000      	0.0000      	      
 5308                           	110                            	107                            	300.0000    	102.0000    	3.7000      	0.0000      	      
 5286                           	1063                           	1058                           	160.0000    	102.0000    	3.2000      	0.0000      	      
 5259                           	1069                           	1048                           	130.0000    	102.0000    	3.0000      	0.0000      	      
 5318                           	1087                           	1133                           	140.0000    	361.0000    	9.5000      	0.0000      	      
 5321                           	428                            	1105                           	370.0000    	296.0000    	21.0000     	0.0000      	      
 5296                           	1011                           	1008                           	100.0000    	152.0000    	2.0000      	0.0000      	      
 5280                           	1004                           	1032                           	240.0000    	102.0000    	3.2000      	0.0000      	      
 5294                           	1072                           	1086                           	480.0000    	102.0000    	3.0000      	0.0000      	      
 5309                           	1107                           	726                            	1.0000      	1000.0000   	0.2000      	0.0000      	CV    
 5310                           	1069                           	1104                           	240.0000    	102.0000    	3.0000      	0.0000      	      
 5311                           	1023                           	1043                           	38.0000     	296.0000    	2.3000      	0.0000      	      
 5312                           	1072                           	1069                           	340.0000    	102.0000    	3.0000      	0.0000      	      
 5256                           	1019                           	1064                           	104.0000    	254.0000    	6.0000      	0.0000      	      
 5303                           	747                            	611                            	270.0000    	106.0000    	0.2000      	0.0000      	      
 5307                           	1082                           	1053                           	290.0000    	152.0000    	3.2000      	0.0000      	      
 5299                           	1021                           	1027                           	55.0000     	319.0000    	3.5000      	0.0000      	      
 5297                           	1030                           	1012                           	13.0000     	150.0000    	0.0300      	0.0000      	      
 5301                           	1029                           	1058                           	320.0000    	102.0000    	3.2000      	0.0000      	      
 5306                           	1067                           	1112                           	220.0000    	152.0000    	20.0000     	0.0000      	      
 5255                           	1058                           	1071                           	150.0000    	102.0000    	3.2000      	0.0000      	      
 5397                           	1596                           	1586                           	1.0000      	110.0000    	0.0300      	0.0000      	      
 5398                           	1844                           	1836                           	1.0000      	110.0000    	0.0300      	0.0000      	      
 5400                           	1735                           	5399                           	360.0000    	152.0000    	8.0000      	0.0000      	      
 5403                           	1735                           	5402                           	310.0000    	152.0000    	8.0000      	0.0000      	      
 5298                           	1093                           	229                            	320.0000    	102.0000    	3.0000      	0.0000      	      
 5405                           	1328                           	1316                           	1.0000      	102.0000    	3.5000      	0.0000      	      
 5404                           	1297                           	1299                           	1.0000      	152.0000    	3.5000      	0.0000      	      
 2384                           	660                            	683                            	180.0000    	152.0000    	5.0000      	0.0000      	      	;	1		Duplicate
 2334                           	398                            	437                            	90.0000     	310.0000    	8.0000      	0.0000      	      	;	2		D
 2160                           	1566                           	1567                           	150.0000    	102.0000    	4.0000      	0.0000      	      	;	3		D
 5191                           	1136                           	1201                           	690.0000    	918.0000    	2.7500      	0.0000      	      	;	4		D
 2676                           	1423                           	1409                           	110.0000    	310.0000    	3.5000      	0.0000      	      	;	5		D
 3198                           	1991                           	1996                           	219.0000    	152.0000    	4.0000      	0.0000      	      	;	6		D
 4942                           	1709                           	1714                           	169.0000    	152.0000    	4.0000      	0.0000      	      	;	7		D
 4986                           	1872                           	1697                           	580.0000    	159.0000    	0.0300      	0.0000      	      	;	8		D
 4911                           	1715                           	1769                           	240.0000    	152.0000    	4.0000      	0.0000      	      	;	9		D
 2741                           	1398                           	1440                           	590.0000    	152.0000    	4.5000      	0.0000      	      	;	10		D
 2368                           	644                            	650                            	320.0000    	229.0000    	20.0000     	0.0000      	      	;	11		D
 3134                           	1855                           	2022                           	140.0000    	152.0000    	5.0000      	0.0000      	      	;	12		D
 3896                           	869                            	873                            	230.0000    	102.0000    	10.0000     	0.0000      	      	;	13		D
 2706                           	20                             	49                             	80.0000     	152.0000    	3.5000      	0.0000      	      	;	14		D
 2424                           	595                            	596                            	159.0000    	159.0000    	2.0000      	0.0000      	      	;	15		D
 3792                           	894                            	918                            	220.0000    	319.0000    	30.0000     	0.0000      	      	;	16 MajorRoad	D
 4139                           	404                            	1209                           	160.0000    	106.0000    	2.0000      	0.0000      	      	;	17		D
 4185                           	1086                           	1108                           	250.0000    	152.0000    	3.0000      	0.0000      	      	;	18		D
 4186                           	1026                           	1081                           	700.0000    	765.0000    	1.0000      	0.0000      	      	;	19		D
 4904                           	1862                           	1887                           	270.0000    	102.0000    	4.0000      	0.0000      	      	;	20		D
 5305                           	1014                           	1013                           	330.0000    	319.0000    	30.0000     	0.0000      	      	;	21		D
 3958                           	1971                           	750                            	1150.0000   	691.0000    	3.2000      	0.0000      	      	;	22		D
 3960                           	801                            	811                            	330.0000    	152.0000    	5.0000      	0.0000      	      	;	23		D
 3183                           	1994                           	2021                           	370.0000    	152.0000    	8.0000      	0.0000      	      	;	24		D
 4065                           	1204                           	404                            	220.0000    	106.0000    	2.0000      	0.0000      	      	;	25		D
 2751                           	1379                           	1391                           	70.0000     	310.0000    	15.0000     	0.0000      	      	;	26		D
 3963                           	794                            	796                            	270.0000    	102.0000    	10.0000     	0.0000      	      	;	27		D
 4173                           	726                            	428                            	450.0000    	765.0000    	5.0000      	0.0000      	      	;	28		D
 2683                           	1688                           	38                             	180.0000    	310.0000    	3.5000      	0.0000      	      	;	29		D
 5262                           	1073                           	1095                           	180.0000    	102.0000    	3.0000      	0.0000      	      	;	30		D
 5212                           	542                            	622                            	380.0000    	918.0000    	1.0000      	0.0000      	      	;	31		D
 2740                           	1316                           	1306                           	390.0000    	102.0000    	3.5000      	0.0000      	      	;	32		D
 4131                           	1599                           	1603                           	290.0000    	152.0000    	3.5000      	0.0000      	      	;	33		D
 3750                           	963                            	940                            	90.0000     	81.0000     	2.2500      	0.0000      	      	;	34		D
 5272                           	1232                           	135                            	100.0000    	152.0000    	20.0000     	0.0000      	      	;	35		D
 3814                           	951                            	1026                           	690.0000    	917.0000    	1.0000      	0.0000      	      	;	36		D
 3689                           	173                            	233                            	320.0000    	387.0000    	20.0000     	0.0000      	      	;	37		D
 3436                           	472                            	485                            	180.0000    	159.0000    	2.0000      	0.0000      	      	;	38		D
 5199                           	1171                           	1183                           	80.0000     	97.0000     	0.3000      	0.0000      	      	;	39		D
 5165                           	541                            	633                            	331.0000    	540.0000    	3.0000      	0.0000      	      	;	40	M	D
 3740                           	951                            	979                            	470.0000    	765.0000    	1.0000      	0.0000      	      	;	41		D
 3713                           	979                            	1026                           	220.0000    	765.0000    	1.0000      	0.0000      	      	;	42		D
 5056                           	553                            	472                            	230.0000    	106.0000    	2.0000      	0.0000      	      	;	43		D
 3510                           	487                            	535                            	340.0000    	102.0000    	3.0000      	0.0000      	      	;	44		D
 5237                           	346                            	371                            	530.0000    	262.0000    	8.0000      	0.0000      	      	;	45		D
 5235                           	373                            	1913                           	100.0000    	102.0000    	3.2000      	0.0000      	      	;	46		D
 4012                           	1966                           	780                            	90.0000     	152.0000    	5.0000      	0.0000      	      	;	47		D
 5243                           	111                            	173                            	130.0000    	387.0000    	20.0000     	0.0000      	      	;	48		D
 5239                           	1136                           	1102                           	70.0000     	690.0000    	2.7500      	0.0000      	      	;	49	M	D
 3932                           	814                            	845                            	170.0000    	106.0000    	10.0000     	0.0000      	      	;	50		D
 4840                           	1763                           	1766                           	160.0000    	152.0000    	4.0000      	0.0000      	      	;	51		D
 3705                           	1454                           	1418                           	130.0000    	102.0000    	3.5000      	0.0000      	      	;	52		D
 3946                           	825                            	819                            	199.0000    	159.0000    	2.2500      	0.0000      	      	;	53		D
 3988                           	777                            	1969                           	570.0000    	474.0000    	12.0000     	0.0000      	      	;	54		D
 2085                           	401                            	432                            	409.0000    	152.0000    	3.5000      	0.0000      	      	;	55		D
 4837                           	1762                           	1767                           	159.0000    	152.0000    	4.0000      	0.0000      	      	;	56		D
 5047                           	889                            	951                            	390.0000    	765.0000    	1.0000      	0.0000      	      	;	57		D
 3906                           	645                            	1187                           	180.0000    	106.0000    	2.0000      	0.0000      	      	;	58		D
 3917                           	800                            	807                            	190.0000    	319.0000    	30.0000     	0.0000      	      	;	59	M	D
 3857                           	902                            	944                            	160.0000    	106.0000    	10.0000     	0.0000      	      	;	60		D
 3982                           	812                            	1972                           	330.0000    	474.0000    	12.0000     	0.0000      	      	;	61		D
 3860                           	879                            	889                            	200.0000    	918.0000    	1.0000      	0.0000      	      	;	62		D
 3892                           	880                            	882                            	230.0000    	102.0000    	3.5000      	0.0000      	      	;	63		D
 3974                           	776                            	1969                           	180.0000    	236.0000    	1.0000      	0.0000      	      	;	64		D
 3964                           	756                            	743                            	300.0000    	102.0000    	3.5000      	0.0000      	      	;	65		D
 3876                           	704                            	717                            	200.0000    	152.0000    	3.0000      	0.0000      	      	;	66		D
 5016                           	1815                           	2047                           	300.0000    	152.0000    	8.0000      	0.0000      	      	;	67	M	D
 2294                           	132                            	1891                           	240.0000    	152.0000    	3.7000      	0.0000      	      	;	68		D
 5073                           	1932                           	1931                           	160.0000    	106.0000    	2.5000      	0.0000      	      	;	69		D
 3880                           	814                            	824                            	130.0000    	102.0000    	10.0000     	0.0000      	      	;	70		D
 3849                           	927                            	928                            	280.0000    	106.0000    	2.2500      	0.0000      	      	;	71		D
 2111                           	233                            	269                            	220.0000    	387.0000    	20.0000     	0.0000      	      	;	72		D
 2714                           	1382                           	1512                           	890.0000    	152.0000    	5.0000      	0.0000      	      	;	73		D
 2261                           	437                            	486                            	210.0000    	310.0000    	3.5000      	0.0000      	      	;	74		D
 3940                           	810                            	829                            	160.0000    	102.0000    	4.5000      	0.0000      	      	;	75		D
 4829                           	1756                           	1770                           	90.0000     	152.0000    	4.0000      	0.0000      	      	;	76		D
 2719                           	1377                           	1640                           	1700.0000   	500.0000    	0.0500      	0.0000      	      	;	77		D
 4805                           	1799                           	1777                           	66.0000     	102.0000    	5.0000      	0.0000      	      	;	78		D
 3282                           	1923                           	429                            	120.0000    	102.0000    	3.5000      	0.0000      	      	;	79		D
 3840                           	902                            	906                            	210.0000    	152.0000    	10.0000     	0.0000      	      	;	80		D
 3121                           	2030                           	2031                           	190.0000    	152.0000    	5.0000      	0.0000      	      	;	81	M	D
 3902                           	867                            	926                            	280.0000    	319.0000    	30.0000     	0.0000      	      	;	82		D
 4057                           	1433                           	1540                           	440.0000    	236.0000    	1.0000      	0.0000      	      	;	83	M	D
 4182                           	1055                           	208                            	340.0000    	159.0000    	1.2500      	0.0000      	      	;	84		D
 2209                           	1566                           	1531                           	210.0000    	102.0000    	4.5000      	0.0000      	      	;	85		D
 4101                           	1430                           	1488                           	320.0000    	310.0000    	20.0000     	0.0000      	      	;	86		D
 2790                           	1343                           	1377                           	900.0000    	300.0000    	0.0500      	0.0000      	      	;	87	M	D
 5103                           	1197                           	1220                           	180.0000    	106.0000    	2.0000      	0.0000      	      	;	88		D
 5079                           	290                            	245                            	250.0000    	152.0000    	3.5000      	0.0000      	      	;	89		D
 3967                           	1971                           	773                            	1120.0000   	540.0000    	3.2000      	0.0000      	      	;	90		D
 2259                           	1504                           	1542                           	200.0000    	106.0000    	2.5000      	0.0000      	      	;	91		D
 3388                           	614                            	1224                           	439.0000    	152.0000    	3.0000      	0.0000      	      	;	92		D
 3976                           	802                            	763                            	310.0000    	106.0000    	2.5000      	0.0000      	      	;	93		D
 3712                           	532                            	1102                           	1100.0000   	918.0000    	2.7500      	0.0000      	      	;	94		D
 4872                           	1761                           	1722                           	239.0000    	152.0000    	5.0000      	0.0000      	      	;	95		D
 3909                           	1167                           	1237                           	340.0000    	102.0000    	3.0000      	0.0000      	      	;	96		D
 3924                           	828                            	889                            	310.0000    	765.0000    	1.0000      	0.0000      	      	;	97		D
 3356                           	730                            	734                            	320.0000    	152.0000    	3.0000      	0.0000      	      	;	98		D
 3819                           	903                            	893                            	410.0000    	152.0000    	4.5000      	0.0000      	      	;	99		D
 3269                           	726                            	1092                           	10.0000     	765.0000    	1.0000      	0.0000      	      	;	100		D
 4004                           	1969                           	820                            	400.0000    	474.0000    	12.0000     	0.0000      	      	;	101		D
 4030                           	697                            	706                            	200.0000    	159.0000    	10.0000     	0.0000      	      	;	102		D
 2888                           	1263                           	1247                           	210.0000    	152.0000    	4.0000      	0.0000      	      	;	103		D
 3235                           	1979                           	1985                           	170.0000    	152.0000    	4.0000      	0.0000      	      	;	104		D
 4843                           	1735                           	1771                           	120.0000    	229.0000    	15.0000     	0.0000      	      	;	105		D
 3529                           	1615                           	1634                           	260.0000    	310.0000    	3.5000      	0.0000      	      	;	106		D
 5049                           	549                            	599                            	79.0000     	229.0000    	20.0000     	0.0000      	      	;	107		D
 2155                           	1579                           	1600                           	92.0000     	310.0000    	3.5000      	0.0000      	      	;	108		D
 2791                           	1357                           	1376                           	280.0000    	310.0000    	15.5000     	0.0000      	      	;	109	M	D
 3021                           	1650                           	1688                           	200.0000    	310.0000    	3.5000      	0.0000      	      	;	110		D
 3925                           	814                            	808                            	199.0000    	102.0000    	10.0000     	0.0000      	      	;	111		D
 5018                           	1711                           	1712                           	340.0000    	152.0000    	4.0000      	0.0000      	      	;	112		D
 2506                           	74                             	65                             	259.0000    	152.0000    	3.5000      	0.0000      	      	;	113		D
 4960                           	1865                           	1825                           	250.0000    	152.0000    	8.0000      	0.0000      	      	;	114		D
 2437                           	617                            	641                            	120.0000    	387.0000    	20.0000     	0.0000      	      	;	115		D
 4970                           	1815                           	1873                           	200.0000    	152.0000    	8.0000      	0.0000      	      	;	116		D
 4895                           	1707                           	1728                           	120.0000    	152.0000    	4.0000      	0.0000      	      	;	117		D
 3716                           	532                            	428                            	700.0000    	765.0000    	1.0000      	0.0000      	      	;	118		D
 3205                           	1989                           	1984                           	340.0000    	152.0000    	4.0000      	0.0000      	      	;	119		D
 2976                           	1650                           	1634                           	170.0000    	310.0000    	3.5000      	0.0000      	      	;	120		D
 2192                           	1560                           	1562                           	210.0000    	310.0000    	5.0000      	0.0000      	      	;	121		D
 2380                           	1948                           	629                            	180.0000    	310.0000    	10.0000     	0.0000      	      	;	122		D
 4899                           	1754                           	1826                           	320.0000    	159.0000    	8.0000      	0.0000      	      	;	123	M	D
 2524                           	87                             	144                            	450.0000    	310.0000    	3.5000      	0.0000      	      	;	124		D
 2391                           	661                            	671                            	259.0000    	106.0000    	10.0000     	0.0000      	      	;	125		D
 2891                           	1795                           	1247                           	200.0000    	152.0000    	4.0000      	0.0000      	      	;	126		D
 3123                           	2045                           	2044                           	230.0000    	152.0000    	5.0000      	0.0000      	      	;	127		D
 3513                           	1639                           	61                             	550.0000    	540.0000    	20.0000     	0.0000      	      	;	128	M	D
 5023                           	487                            	495                            	170.0000    	102.0000    	3.0000      	0.0000      	      	;	129		D
 3131                           	2022                           	1877                           	139.0000    	152.0000    	5.0000      	0.0000      	      	;	130		D
 2544                           	38                             	87                             	230.0000    	310.0000    	3.5000      	0.0000      	      	;	131		D
 5008                           	1429                           	1457                           	250.0000    	106.0000    	2.5000      	0.0000      	      	;	132		D
 5120                           	552                            	665                            	330.0000    	310.0000    	10.0000     	0.0000      	      	;	133		D
 2757                           	1363                           	1364                           	260.0000    	152.0000    	4.5000      	0.0000      	      	;	134		D
 5066                           	364                            	542                            	1450.0000   	552.0000    	0.1000      	0.0000      	      	;	135	M	D
 5051                           	1450                           	1431                           	340.0000    	152.0000    	4.5000      	0.0000      	      	;	136		D
 4875                           	1716                           	1721                           	70.0000     	254.0000    	8.0000      	0.0000      	      	;	137		D
 4865                           	1719                           	1308                           	690.0000    	387.0000    	30.0000     	0.0000      	      	;	138		D
 2431                           	595                            	485                            	330.0000    	159.0000    	2.0000      	0.0000      	      	;	139		D
 4029                           	678                            	705                            	220.0000    	102.0000    	3.5000      	0.0000      	      	;	140		D
 2712                           	1356                           	1302                           	370.0000    	236.0000    	1.0000      	0.0000      	      	;	141	M	D
 2796                           	1308                           	1334                           	420.0000    	310.0000    	12.0000     	0.0000      	      	;	142		D
 2963                           	1003                           	945                            	280.0000    	319.0000    	30.0000     	0.0000      	      	;	143	M	D
 3834                           	918                            	945                            	70.0000     	319.0000    	30.0000     	0.0000      	      	;	144	M	D
 3129                           	2022                           	2045                           	51.0000     	152.0000    	5.0000      	0.0000      	      	;	145		D
 3877                           	1187                           	187                            	190.0000    	106.0000    	2.0000      	0.0000      	      	;	146		D
 4780                           	1791                           	1761                           	36.0000     	152.0000    	5.0000      	0.0000      	      	;	147		D
 2412                           	559                            	603                            	80.0000     	102.0000    	3.5000      	0.0000      	      	;	148		D
 2295                           	434                            	490                            	310.0000    	102.0000    	3.0000      	0.0000      	      	;	149		D
 3254                           	250                            	1150                           	180.0000    	102.0000    	3.5000      	0.0000      	      	;	150		D
 3236                           	2016                           	1887                           	90.0000     	152.0000    	4.0000      	0.0000      	      	;	151		D
 3216                           	2047                           	1837                           	120.0000    	144.0000    	0.3000      	0.0000      	      	;	152		D
 2331                           	363                            	369                            	259.0000    	144.0000    	0.3000      	0.0000      	      	;	153		D
 4834                           	1735                           	1736                           	270.0000    	152.0000    	8.0000      	0.0000      	      	;	154		D
 2217                           	1560                           	1579                           	230.0000    	310.0000    	3.5000      	0.0000      	      	;	155		D
 2896                           	1300                           	1382                           	300.0000    	152.0000    	4.0000      	0.0000      	      	;	156		D
 4087                           	656                            	1184                           	170.0000    	97.0000     	0.0300      	0.0000      	      	;	157		D
 3505                           	336                            	371                            	120.0000    	229.0000    	10.0000     	0.0000      	      	;	158		D
 5009                           	155                            	1113                           	160.0000    	102.0000    	3.0000      	0.0000      	      	;	159		D
 2777                           	1383                           	1460                           	710.0000    	387.0000    	20.0000     	0.0000      	      	;	160		D
 4811                           	1771                           	1254                           	300.0000    	296.0000    	10.0000     	0.0000      	      	;	161		D
 4827                           	1740                           	1702                           	170.0000    	152.0000    	4.0000      	0.0000      	      	;	162		D
 4930                           	1721                           	1755                           	220.0000    	102.0000    	4.0000      	0.0000      	      	;	163		D
 4812                           	1780                           	1258                           	150.0000    	102.0000    	3.0000      	0.0000      	      	;	164		D
 2141                           	1600                           	1615                           	78.0000     	310.0000    	3.5000      	0.0000      	      	;	165		D
 2883                           	1267                           	1791                           	105.0000    	152.0000    	5.0000      	0.0000      	      	;	166		D
 3122                           	1854                           	1812                           	190.0000    	102.0000    	4.0000      	0.0000      	      	;	167		D
 4810                           	1794                           	1771                           	290.0000    	102.0000    	8.0000      	0.0000      	      	;	168		D
 4176                           	1121                           	1123                           	420.0000    	102.0000    	3.0000      	0.0000      	      	;	169		D
 3687                           	1426                           	1425                           	280.0000    	106.0000    	2.5000      	0.0000      	      	;	170		D
 3726                           	1448                           	1431                           	200.0000    	102.0000    	4.5000      	0.0000      	      	;	171		D
 4819                           	1764                           	1765                           	360.0000    	152.0000    	4.0000      	0.0000      	      	;	172		D
 3783                           	893                            	879                            	150.0000    	229.0000    	4.5000      	0.0000      	      	;	173		D
 4985                           	1855                           	1824                           	86.0000     	152.0000    	5.0000      	0.0000      	      	;	174		D
 4946                           	1834                           	1810                           	220.0000    	102.0000    	8.0000      	0.0000      	      	;	175		D
 3779                           	906                            	914                            	250.0000    	152.0000    	10.0000     	0.0000      	      	;	176		D
 3690                           	1014                           	1003                           	290.0000    	319.0000    	30.0000     	0.0000      	      	;	177	M	D
 5155                           	1232                           	740                            	110.0000    	102.0000    	3.0000      	0.0000      	      	;	178		D
 4159                           	1434                           	1440                           	119.0000    	152.0000    	4.5000      	0.0000      	      	;	179		D
 4021                           	797                            	1972                           	130.0000    	152.0000    	5.0000      	0.0000      	      	;	180		D
 4138                           	759                            	1094                           	240.0000    	102.0000    	3.0000      	0.0000      	      	;	181		D
 5248                           	1086                           	1119                           	240.0000    	102.0000    	3.0000      	0.0000      	      	;	182		D
 5034                           	371                            	458                            	706.0000    	288.0000    	0.0300      	0.0000      	      	;	183		D
 2510                           	57                             	63                             	369.0000    	229.0000    	3.5000      	0.0000      	      	;	184		D
 4995                           	1816                           	1694                           	60.0000     	152.0000    	5.0000      	0.0000      	      	;	185		D
 2546                           	77                             	60                             	230.0000    	387.0000    	20.0000     	0.0000      	      	;	186		D
 3871                           	868                            	927                            	410.0000    	106.0000    	2.2500      	0.0000      	      	;	187		D
 2995                           	1011                           	1036                           	200.0000    	152.0000    	2.0000      	0.0000      	      	;	188		D
 2416                           	1940                           	579                            	180.0000    	102.0000    	3.0000      	0.0000      	      	;	189		D
 3699                           	1046                           	1074                           	430.0000    	102.0000    	3.0000      	0.0000      	      	;	190		D
 3289                           	445                            	442                            	137.0000    	102.0000    	3.0000      	0.0000      	      	;	191		D
 4998                           	1708                           	1710                           	160.0000    	152.0000    	4.0000      	0.0000      	      	;	192		D
 3260                           	1119                           	1109                           	160.0000    	102.0000    	3.0000      	0.0000      	      	;	193		D
 3817                           	902                            	924                            	170.0000    	106.0000    	10.0000     	0.0000      	      	;	194		D
 3535                           	108                            	94                             	66.0000     	102.0000    	3.7000      	0.0000      	      	;	195		D
 5177                           	517                            	1191                           	480.0000    	152.0000    	20.0000     	0.0000      	      	;	196		D
 3446                           	1639                           	1611                           	250.0000    	540.0000    	20.0000     	0.0000      	      	;	197		D
 5085                           	1433                           	1487                           	280.0000    	236.0000    	1.0000      	0.0000      	      	;	198	M	D
 5074                           	292                            	1907                           	180.0000    	102.0000    	3.2000      	0.0000      	      	;	199		D
 2252                           	161                            	136                            	169.0000    	152.0000    	3.2000      	0.0000      	      	;	200		D
 5076                           	535                            	1941                           	250.0000    	102.0000    	3.0000      	0.0000      	      	;	201		D
 5068                           	1931                           	519                            	140.0000    	106.0000    	2.5000      	0.0000      	      	;	202		D
 5113                           	1199                           	1221                           	180.0000    	102.0000    	3.0000      	0.0000      	      	;	203		D
 5215                           	304                            	358                            	269.0000    	229.0000    	3.5000      	0.0000      	      	;	204		D
 3422                           	578                            	533                            	630.0000    	765.0000    	11.0000     	0.0000      	      	;	205		D
 3124                           	1887                           	2037                           	130.0000    	152.0000    	4.0000      	0.0000      	      	;	206		D
 4929                           	1694                           	1704                           	60.0000     	254.0000    	15.0000     	0.0000      	      	;	207		D
 5183                           	1907                           	368                            	350.0000    	102.0000    	3.0000      	0.0000      	      	;	208		D
 3159                           	1885                           	2016                           	190.0000    	102.0000    	4.0000      	0.0000      	      	;	209		D
 5038                           	1197                           	597                            	210.0000    	106.0000    	2.0000      	0.0000      	      	;	210		D
 4826                           	1745                           	1254                           	510.0000    	102.0000    	8.0000      	0.0000      	      	;	211		D
 3414                           	557                            	559                            	150.0000    	102.0000    	3.5000      	0.0000      	      	;	212		D
 4950                           	1866                           	1696                           	79.0000     	310.0000    	30.0000     	0.0000      	      	;	213		D
 2454                           	629                            	627                            	240.0000    	310.0000    	10.0000     	0.0000      	      	;	214		D
 5117                           	1201                           	352                            	120.0000    	629.0000    	2.7500      	0.0000      	      	;	215	M	D
 4919                           	1716                           	1777                           	602.0000    	102.0000    	5.0000      	0.0000      	      	;	216		D
 4844                           	1753                           	1292                           	470.0000    	310.0000    	15.0000     	0.0000      	      	;	217		D
 2418                           	459                            	461                            	240.0000    	229.0000    	3.5000      	0.0000      	      	;	218		D
 4170                           	519                            	525                            	139.0000    	106.0000    	2.5000      	0.0000      	      	;	219		D
 4165                           	465                            	1136                           	169.0000    	159.0000    	0.5000      	0.0000      	      	;	220		D
 2852                           	1308                           	1383                           	240.0000    	387.0000    	20.0000     	0.0000      	      	;	221		D
 4149                           	1093                           	1121                           	130.0000    	102.0000    	3.0000      	0.0000      	      	;	222		D
 5159                           	1165                           	1191                           	120.0000    	102.0000    	3.0000      	0.0000      	      	;	223		D
 5139                           	1169                           	696                            	220.0000    	106.0000    	2.2500      	0.0000      	      	;	224		D
 4147                           	1046                           	1072                           	120.0000    	102.0000    	3.0000      	0.0000      	      	;	225		D
 2619                           	23                             	197                            	1080.0000   	522.0000    	1.5000      	0.0000      	      	;	226	M	D
 5198                           	367                            	359                            	420.0000    	262.0000    	8.0000      	0.0000      	      	;	227		D
 5084                           	1465                           	1509                           	460.0000    	159.0000    	2.5000      	0.0000      	      	;	228		D
 4938                           	1825                           	1810                           	80.0000     	102.0000    	8.0000      	0.0000      	      	;	229		D
 4064                           	1958                           	769                            	250.0000    	319.0000    	30.0000     	0.0000      	      	;	230		D
 2509                           	77                             	123                            	140.0000    	310.0000    	20.5000     	0.0000      	      	;	231		D
 2532                           	49                             	65                             	290.0000    	152.0000    	3.5000      	0.0000      	      	;	232		D
 5217                           	893                            	925                            	170.0000    	152.0000    	4.5000      	0.0000      	      	;	233		D
 2363                           	702                            	704                            	210.0000    	152.0000    	20.0000     	0.0000      	      	;	234		D
 3427                           	495                            	1927                           	170.0000    	102.0000    	3.0000      	0.0000      	      	;	235		D
 3178                           	2020                           	1833                           	160.0000    	152.0000    	4.0000      	0.0000      	      	;	236		D
 2812                           	1289                           	1389                           	550.0000    	229.0000    	15.0000     	0.0000      	      	;	237		D
 3066                           	1866                           	1693                           	80.0000     	152.0000    	8.0000      	0.0000      	      	;	238		D
 2833                           	1311                           	1323                           	150.0000    	152.0000    	4.5000      	0.0000      	      	;	239		D
 4158                           	110                            	132                            	250.0000    	152.0000    	3.5000      	0.0000      	      	;	240		D
 3853                           	1460                           	1505                           	350.0000    	387.0000    	20.0000     	0.0000      	      	;	241		D
 3038                           	433                            	381                            	140.0000    	106.0000    	2.2500      	0.0000      	      	;	242		D
 3093                           	1505                           	1546                           	390.0000    	152.0000    	3.5000      	0.0000      	      	;	243		D
 2271                           	154                            	170                            	370.0000    	102.0000    	3.0000      	0.0000      	      	;	244		D
 2803                           	1356                           	1393                           	100.0000    	152.0000    	4.5000      	0.0000      	      	;	245	M	D
 2355                           	665                            	651                            	260.0000    	387.0000    	10.0000     	0.0000      	      	;	246		D
 3787                           	873                            	886                            	229.0000    	102.0000    	10.0000     	0.0000      	      	;	247		D
 4830                           	1764                           	1765                           	360.0000    	152.0000    	4.0000      	0.0000      	      	;	248		D
 2329                           	679                            	669                            	150.0000    	106.0000    	2.2500      	0.0000      	      	;	249		D
 2946                           	329                            	368                            	210.0000    	102.0000    	3.2000      	0.0000      	      	;	250		D
 2902                           	1279                           	1357                           	540.0000    	310.0000    	10.5000     	0.0000      	      	;	251		D
 2783                           	1399                           	1386                           	200.0000    	106.0000    	2.5000      	0.0000      	      	;	252		D
 3032                           	399                            	439                            	140.0000    	106.0000    	2.2500      	0.0000      	      	;	253		D
 3253                           	271                            	1183                           	579.0000    	152.0000    	3.5000      	0.0000      	      	;	254		D
 3251                           	1129                           	1157                           	320.0000    	102.0000    	3.0000      	0.0000      	      	;	255		D
 2943                           	318                            	290                            	239.0000    	152.0000    	3.5000      	0.0000      	      	;	256		D
 2342                           	1921                           	424                            	220.0000    	102.0000    	3.0000      	0.0000      	      	;	257		D
 2939                           	951                            	927                            	150.0000    	152.0000    	1.0000      	0.0000      	      	;	258		D
 2773                           	1357                           	1348                           	200.0000    	106.0000    	2.2500      	0.0000      	      	;	259		D
 2819                           	1334                           	1285                           	380.0000    	152.0000    	5.0000      	0.0000      	      	;	260		D
 4024                           	796                            	814                            	230.0000    	102.0000    	10.0000     	0.0000      	      	;	261		D
 2935                           	1269                           	1342                           	520.0000    	152.0000    	5.0000      	0.0000      	      	;	262		D
 2442                           	579                            	570                            	190.0000    	102.0000    	3.0000      	0.0000      	      	;	263		D
 2159                           	1499                           	1554                           	250.0000    	106.0000    	2.5000      	0.0000      	      	;	264		D
 2320                           	1933                           	542                            	930.0000    	765.0000    	11.0000     	0.0000      	      	;	265		D
 2677                           	1422                           	1389                           	199.0000    	229.0000    	1.0000      	0.0000      	      	;	266		D
 2769                           	1356                           	1399                           	340.0000    	236.0000    	1.0000      	0.0000      	      	;	267	M	D
 3410                           	578                            	1943                           	215.0000    	765.0000    	11.0000     	0.0000      	      	;	268		D
 2270                           	426                            	459                            	150.0000    	152.0000    	3.5000      	0.0000      	      	;	269		D
 2274                           	434                            	435                            	160.0000    	102.0000    	3.0000      	0.0000      	      	;	270		D
 2272                           	108                            	92                             	274.0000    	152.0000    	3.7000      	0.0000      	      	;	271		D
 2782                           	1292                           	1342                           	380.0000    	310.0000    	15.0000     	0.0000      	      	;	272		D
 2784                           	1393                           	1433                           	410.0000    	152.0000    	4.5000      	0.0000      	      	;	273	M	D
 2813                           	1363                           	1375                           	90.0000     	152.0000    	4.5000      	0.0000      	      	;	274		D
 2962                           	386                            	425                            	170.0000    	387.0000    	20.0000     	0.0000      	      	;	275		D
 2282                           	403                            	15                             	2100.0000   	500.0000    	0.0500      	0.0000      	      	;	276		D
 3082                           	1519                           	1533                           	349.0000    	229.0000    	3.7000      	0.0000      	      	;	277		D
 3317                           	1136                           	1150                           	270.0000    	102.0000    	3.5000      	0.0000      	      	;	278		D
 2314                           	438                            	434                            	130.0000    	102.0000    	3.0000      	0.0000      	      	;	279		D
 3285                           	442                            	441                            	141.0000    	102.0000    	3.0000      	0.0000      	      	;	280		D
 3305                           	1185                           	1164                           	140.0000    	106.0000    	2.2500      	0.0000      	      	;	281		D
 3672                           	136                            	102                            	260.0000    	152.0000    	3.2000      	0.0000      	      	;	282		D
 2313                           	1916                           	398                            	80.0000     	310.0000    	3.5000      	0.0000      	      	;	283		D
 2291                           	435                            	1934                           	330.0000    	102.0000    	3.0000      	0.0000      	      	;	284		D
 4174                           	1081                           	1092                           	450.0000    	765.0000    	5.0000      	0.0000      	      	;	285		D
 3445                           	494                            	554                            	280.0000    	106.0000    	2.0000      	0.0000      	      	;	286		D
 3292                           	33                             	47                             	269.0000    	229.0000    	3.5000      	0.0000      	      	;	287		D
 3307                           	1108                           	1122                           	80.0000     	152.0000    	3.5000      	0.0000      	      	;	288		D
 3239                           	2004                           	2000                           	310.0000    	152.0000    	5.0000      	0.0000      	      	;	289		D
 2199                           	1559                           	1584                           	289.0000    	229.0000    	1.0000      	0.0000      	      	;	290		D
 2134                           	1598                           	1612                           	240.0000    	229.0000    	3.7000      	0.0000      	      	;	291		D
 4931                           	1719                           	1825                           	180.0000    	152.0000    	8.0000      	0.0000      	      	;	292		D
 3316                           	1157                           	1165                           	110.0000    	102.0000    	3.0000      	0.0000      	      	;	293		D
 3256                           	474                            	501                            	240.0000    	102.0000    	3.5000      	0.0000      	      	;	294		D
 3458                           	464                            	449                            	320.0000    	102.0000    	3.0000      	0.0000      	      	;	295		D
 2310                           	425                            	475                            	300.0000    	387.0000    	20.0000     	0.0000      	      	;	296		D
 3303                           	1125                           	1108                           	170.0000    	102.0000    	3.0000      	0.0000      	      	;	297		D
 3200                           	2015                           	2007                           	110.0000    	300.0000    	0.0200      	0.0000      	      	;	298		D
 2281                           	437                            	470                            	147.0000    	152.0000    	5.0000      	0.0000      	      	;	299		D
 3278                           	1984                           	1979                           	240.0000    	152.0000    	4.0000      	0.0000      	      	;	300		D
 2254                           	1722                           	1824                           	74.0000     	152.0000    	5.0000      	0.0000      	      	;	301		D
 2311                           	664                            	690                            	180.0000    	152.0000    	3.5000      	0.0000      	      	;	302		D
 3074                           	2020                           	1820                           	370.0000    	102.0000    	4.0000      	0.0000      	      	;	303		D
 2874                           	1289                           	1293                           	290.0000    	102.0000    	4.0000      	0.0000      	      	;	304		D
 3144                           	2008                           	2004                           	210.0000    	152.0000    	5.0000      	0.0000      	      	;	305		D
 2330                           	410                            	474                            	350.0000    	102.0000    	3.5000      	0.0000      	      	;	306		D
 3273                           	1996                           	1976                           	1410.0000   	464.0000    	14.0000     	0.0000      	      	;	307		D
 3048                           	403                            	469                            	1710.0000   	1073.0000   	2.0000      	0.0000      	      	;	308		D
 3047                           	453                            	1929                           	150.0000    	464.0000    	5.2000      	0.0000      	      	;	309		D
 3105                           	2037                           	2020                           	190.0000    	152.0000    	4.0000      	0.0000      	      	;	310		D
 3055                           	1540                           	1640                           	410.0000    	236.0000    	1.0000      	0.0000      	      	;	311	M	D
 3065                           	2038                           	1879                           	280.0000    	229.0000    	20.0000     	0.0000      	      	;	312		D
 2824                           	1375                           	1394                           	90.0000     	152.0000    	4.5000      	0.0000      	      	;	313		D
 3154                           	2032                           	2030                           	160.0000    	152.0000    	5.0000      	0.0000      	      	;	314	M	D
 3147                           	2033                           	2032                           	160.0000    	152.0000    	5.0000      	0.0000      	      	;	315	M	D
 3035                           	381                            	410                            	180.0000    	106.0000    	2.2500      	0.0000      	      	;	316		D
 2821                           	1302                           	1796                           	410.0000    	236.0000    	1.0000      	0.0000      	      	;	317	M	D
 2152                           	1546                           	1533                           	120.0000    	229.0000    	3.7000      	0.0000      	      	;	318		D
 2319                           	665                            	648                            	210.0000    	310.0000    	10.0000     	0.0000      	      	;	319		D
 2451                           	627                            	566                            	310.0000    	464.0000    	5.5000      	0.0000      	      	;	320		D
 2737                           	1390                           	1342                           	200.0000    	310.0000    	3.5000      	0.0000      	      	;	321		D
 2733                           	1390                           	1342                           	200.0000    	152.0000    	5.0000      	0.0000      	      	;	322		D
 3652                           	205                            	154                            	400.0000    	152.0000    	1.5000      	0.0000      	      	;	323		D
 2504                           	1489                           	1431                           	340.0000    	152.0000    	4.5000      	0.0000      	      	;	324		D
 2309                           	635                            	660                            	270.0000    	152.0000    	5.0000      	0.0000      	      	;	325		D
 2460                           	441                            	467                            	130.0000    	102.0000    	3.0000      	0.0000      	      	;	326		D
 2591                           	1512                           	1585                           	810.0000    	152.0000    	5.0000      	0.0000      	      	;	327		D
 3528                           	1614                           	1663                           	280.0000    	387.0000    	5.0000      	0.0000      	      	;	328		D
 4072                           	720                            	1968                           	360.0000    	319.0000    	20.0000     	0.0000      	      	;	329	M	D
 2300                           	531                            	556                            	299.0000    	152.0000    	4.0000      	0.0000      	      	;	330		D
 2292                           	1933                           	533                            	670.0000    	765.0000    	11.0000     	0.0000      	      	;	331		D
 5063                           	1916                           	486                            	380.0000    	540.0000    	6.0000      	0.0000      	      	;	332	M	D
 3353                           	1956                           	828                            	690.0000    	765.0000    	1.0000      	0.0000      	      	;	333		D
 2727                           	1370                           	1350                           	110.0000    	102.0000    	4.0000      	0.0000      	      	;	334		D
 2493                           	79                             	106                            	189.0000    	229.0000    	3.5000      	0.0000      	      	;	335	M	D
 2930                           	1242                           	1799                           	120.0000    	152.0000    	5.0000      	0.0000      	      	;	336		D
 2470                           	290                            	298                            	70.0000     	152.0000    	3.5000      	0.0000      	      	;	337		D
 2435                           	435                            	419                            	80.0000     	102.0000    	3.0000      	0.0000      	      	;	338		D
 2393                           	648                            	1948                           	120.0000    	310.0000    	10.0000     	0.0000      	      	;	339		D
 2360                           	709                            	742                            	230.0000    	106.0000    	10.0000     	0.0000      	      	;	340		D
 2465                           	576                            	1956                           	980.0000    	765.0000    	1.0000      	0.0000      	      	;	341		D
 2539                           	103                            	114                            	80.0000     	102.0000    	3.0000      	0.0000      	      	;	342		D
 2557                           	63                             	111                            	270.0000    	387.0000    	20.0000     	0.0000      	      	;	343		D
 2376                           	666                            	704                            	280.0000    	102.0000    	3.0000      	0.0000      	      	;	344		D
 2526                           	34                             	44                             	240.0000    	229.0000    	3.5000      	0.0000      	      	;	345		D
 2402                           	642                            	685                            	369.0000    	102.0000    	3.5000      	0.0000      	      	;	346		D
 2371                           	1951                           	695                            	170.0000    	319.0000    	30.0000     	0.0000      	      	;	347		D
 2474                           	1518                           	1527                           	110.0000    	159.0000    	2.5000      	0.0000      	      	;	348		D
 2725                           	1405                           	1394                           	190.0000    	152.0000    	4.5000      	0.0000      	      	;	349		D
 2365                           	650                            	673                            	190.0000    	229.0000    	20.0000     	0.0000      	      	;	350		D
 3473                           	486                            	541                            	269.0000    	600.0000    	0.1000      	0.0000      	      	;	351		D
 2590                           	1488                           	1511                           	210.0000    	310.0000    	20.0000     	0.0000      	      	;	352		D
 4893                           	1765                           	1763                           	150.0000    	152.0000    	4.0000      	0.0000      	      	;	353		D
 2555                           	61                             	106                            	190.0000    	540.0000    	20.0000     	0.0000      	      	;	354		D
 2430                           	1941                           	1940                           	170.0000    	102.0000    	3.0000      	0.0000      	      	;	355		D
 2297                           	106                            	1916                           	1120.0000   	540.0000    	20.0000     	0.0000      	      	;	356	M	D
 2410                           	556                            	557                            	120.0000    	102.0000    	3.0000      	0.0000      	      	;	357		D
 2447                           	571                            	617                            	180.0000    	387.0000    	20.0000     	0.0000      	      	;	358		D
 2394                           	612                            	1941                           	259.0000    	152.0000    	3.0000      	0.0000      	      	;	359		D
 2856                           	1770                           	1786                           	260.0000    	152.0000    	4.0000      	0.0000      	      	;	360		D
 2861                           	1353                           	1357                           	120.0000    	106.0000    	7.5000      	0.0000      	      	;	361		D
 3169                           	1829                           	1814                           	340.0000    	152.0000    	8.0000      	0.0000      	      	;	362		D
 2381                           	627                            	633                            	640.0000    	765.0000    	11.0000     	0.0000      	      	;	363		D
 3004                           	1913                           	293                            	210.0000    	102.0000    	3.2000      	0.0000      	      	;	364		D
 2952                           	399                            	385                            	200.0000    	106.0000    	2.2500      	0.0000      	      	;	365		D
 2674                           	23                             	15                             	200.0000    	387.0000    	10.0000     	0.0000      	      	;	366		D
 2928                           	367                            	399                            	80.0000     	106.0000    	2.2500      	0.0000      	      	;	367		D
 2575                           	23                             	1690                           	603.0000    	152.0000    	3.5000      	0.0000      	      	;	368		D
 2699                           	1409                           	1390                           	190.0000    	310.0000    	3.5000      	0.0000      	      	;	369		D
 2759                           	1342                           	1341                           	100.0000    	310.0000    	4.5000      	0.0000      	      	;	370	M	D
 4982                           	1831                           	1695                           	340.0000    	102.0000    	4.0000      	0.0000      	      	;	371		D
 3516                           	1636                           	1648                           	249.0000    	152.0000    	3.5000      	0.0000      	      	;	372		D
 3786                           	926                            	1013                           	310.0000    	319.0000    	30.0000     	0.0000      	      	;	373		D
 2950                           	387                            	429                            	170.0000    	102.0000    	3.5000      	0.0000      	      	;	374		D
 3624                           	298                            	334                            	140.0000    	152.0000    	3.5000      	0.0000      	      	;	375		D
 2847                           	1359                           	1358                           	160.0000    	152.0000    	4.5000      	0.0000      	      	;	376		D
 2858                           	1306                           	1318                           	310.0000    	152.0000    	4.0000      	0.0000      	      	;	377		D
 2742                           	1388                           	1389                           	220.0000    	102.0000    	4.0000      	0.0000      	      	;	378		D
 2763                           	1389                           	1355                           	160.0000    	102.0000    	4.0000      	0.0000      	      	;	379		D
 2967                           	381                            	359                            	120.0000    	106.0000    	2.2500      	0.0000      	      	;	380		D
 2720                           	1329                           	1336                           	210.0000    	102.0000    	4.0000      	0.0000      	      	;	381		D
 2736                           	1364                           	1365                           	90.0000     	152.0000    	4.5000      	0.0000      	      	;	382		D
 2455                           	580                            	625                            	119.0000    	159.0000    	0.0300      	0.0000      	      	;	383		D
 2602                           	1509                           	1518                           	120.0000    	159.0000    	2.5000      	0.0000      	      	;	384		D
 2133                           	1602                           	1601                           	229.0000    	152.0000    	0.0300      	0.0000      	      	;	385		D
 2579                           	1487                           	1532                           	170.0000    	236.0000    	1.0000      	0.0000      	      	;	386	M	D
 2462                           	461                            	455                            	169.0000    	229.0000    	3.5000      	0.0000      	      	;	387		D
 2743                           	1389                           	1370                           	100.0000    	102.0000    	4.0000      	0.0000      	      	;	388		D
 2052                           	743                            	707                            	310.0000    	102.0000    	3.5000      	0.0000      	      	;	389		D
 2473                           	619                            	635                            	170.0000    	152.0000    	5.0000      	0.0000      	      	;	390		D
 3342                           	769                            	790                            	120.0000    	319.0000    	30.0000     	0.0000      	      	;	391		D
 3939                           	820                            	812                            	220.0000    	474.0000    	12.0000     	0.0000      	      	;	392		D
 2512                           	55                             	73                             	950.0000    	500.0000    	0.5000      	0.0000      	      	;	393		D
 5036                           	1898                           	205                            	150.0000    	102.0000    	3.0000      	0.0000      	      	;	394		D
 2704                           	1418                           	1384                           	350.0000    	102.0000    	3.5000      	0.0000      	      	;	395		D
 2656                           	1672                           	63                             	440.0000    	387.0000    	20.0000     	0.0000      	      	;	396		D
 2385                           	627                            	1939                           	240.0000    	102.0000    	3.5000      	0.0000      	      	;	397		D
 2707                           	1395                           	1429                           	250.0000    	159.0000    	2.5000      	0.0000      	      	;	398		D
 2684                           	1479                           	1532                           	350.0000    	106.0000    	2.5000      	0.0000      	      	;	399		D
 2651                           	1532                           	1640                           	410.0000    	236.0000    	1.0000      	0.0000      	      	;	400	M	D
 2226                           	181                            	156                            	140.0000    	106.0000    	1.7500      	0.0000      	      	;	401		D
 2427                           	609                            	678                            	390.0000    	152.0000    	3.5000      	0.0000      	      	;	402		D
 3922                           	842                            	827                            	190.0000    	102.0000    	3.5000      	0.0000      	      	;	403		D
 3347                           	1959                           	738                            	210.0000    	106.0000    	10.0000     	0.0000      	      	;	404		D
 3682                           	142                            	140                            	120.0000    	152.0000    	3.0000      	0.0000      	      	;	405		D
 3457                           	556                            	664                            	380.0000    	152.0000    	3.5000      	0.0000      	      	;	406		D
 4903                           	1871                           	2037                           	320.0000    	102.0000    	4.0000      	0.0000      	      	;	407		D
 3338                           	1972                           	1956                           	850.0000    	474.0000    	12.0000     	0.0000      	      	;	408		D
 3166                           	2044                           	1701                           	540.0000    	152.0000    	4.0000      	0.0000      	      	;	409		D
 3506                           	475                            	571                            	330.0000    	387.0000    	20.0000     	0.0000      	      	;	410		D
 2373                           	652                            	678                            	240.0000    	102.0000    	3.5000      	0.0000      	      	;	411		D
 2501                           	96                             	103                            	120.0000    	102.0000    	3.0000      	0.0000      	      	;	412		D
 3281                           	42                             	12                             	120.0000    	152.0000    	3.5000      	0.0000      	      	;	413		D
 4080                           	457                            	656                            	210.0000    	97.0000     	0.0300      	0.0000      	      	;	414		D
 2077                           	773                            	777                            	160.0000    	540.0000    	3.2000      	0.0000      	      	;	415		D
 2096                           	1968                           	1971                           	2400.0000   	890.0000    	0.1000      	0.0000      	      	;	416		D
 3434                           	1943                           	489                            	470.0000    	900.0000    	0.0300      	0.0000      	      	;	417		D
 2051                           	1965                           	1966                           	120.0000    	152.0000    	5.0000      	0.0000      	      	;	418		D
 3372                           	616                            	609                            	249.0000    	152.0000    	3.5000      	0.0000      	      	;	419		D
 3366                           	845                            	864                            	150.0000    	97.0000     	0.0300      	0.0000      	      	;	420		D
 5033                           	304                            	252                            	210.0000    	229.0000    	3.5000      	0.0000      	      	;	421		D
 3393                           	1224                           	759                            	150.0000    	102.0000    	3.0000      	0.0000      	      	;	422		D
 3451                           	491                            	605                            	310.0000    	102.0000    	3.0000      	0.0000      	      	;	423		D
 3693                           	108                            	115                            	65.0000     	152.0000    	3.7000      	0.0000      	      	;	424		D
 5134                           	551                            	1200                           	80.0000     	102.0000    	3.0000      	0.0000      	      	;	425		D
 3579                           	342                            	365                            	169.0000    	152.0000    	3.5000      	0.0000      	      	;	426		D
 3426                           	454                            	471                            	159.0000    	152.0000    	3.0000      	0.0000      	      	;	427		D
 2681                           	1399                           	1433                           	150.0000    	236.0000    	1.0000      	0.0000      	      	;	428	M	D
 2063                           	755                            	781                            	230.0000    	152.0000    	4.5000      	0.0000      	      	;	429	M	D
 4816                           	1254                           	1279                           	100.0000    	310.0000    	10.5000     	0.0000      	      	;	430		D
 4084                           	1907                           	368                            	350.0000    	102.0000    	3.0000      	0.0000      	      	;	431		D
 3409                           	155                            	352                            	570.0000    	918.0000    	2.7500      	0.0000      	      	;	432		D
 2103                           	1397                           	1417                           	510.0000    	310.0000    	15.0000     	0.0000      	      	;	433		D
 3937                           	836                            	870                            	190.0000    	310.0000    	30.0000     	0.0000      	      	;	434	M	D
 2080                           	790                            	826                            	320.0000    	319.0000    	30.0000     	0.0000      	      	;	435		D
 2087                           	197                            	364                            	570.0000    	552.0000    	1.5000      	0.0000      	      	;	436	M	D
 3186                           	2009                           	2008                           	120.0000    	152.0000    	5.0000      	0.0000      	      	;	437		D
 2065                           	1968                           	800                            	240.0000    	314.0000    	0.3000      	0.0000      	      	;	438		D
 3350                           	718                            	702                            	200.0000    	152.0000    	5.0000      	0.0000      	      	;	439		D
 2104                           	1956                           	879                            	930.0000    	918.0000    	1.0000      	0.0000      	      	;	440		D
 3471                           	460                            	490                            	230.0000    	102.0000    	3.0000      	0.0000      	      	;	441		D
 2095                           	682                            	683                            	320.0000    	102.0000    	3.0000      	0.0000      	      	;	442		D
 4043                           	622                            	1935                           	360.0000    	102.0000    	3.0000      	0.0000      	      	;	443		D
 4088                           	1179                           	517                            	490.0000    	152.0000    	20.0000     	0.0000      	      	;	444		D
 4039                           	667                            	679                            	300.0000    	110.0000    	0.0300      	0.0000      	      	;	445		D
 4008                           	693                            	717                            	237.0000    	229.0000    	20.0000     	0.0000      	      	;	446		D
 3639                           	234                            	240                            	120.0000    	159.0000    	1.7500      	0.0000      	      	;	447		D
 3595                           	230                            	282                            	310.0000    	102.0000    	3.5000      	0.0000      	      	;	448		D
 4055                           	737                            	1965                           	240.0000    	127.0000    	5.0000      	0.0000      	      	;	449		D
 4019                           	741                            	1956                           	179.0000    	152.0000    	3.0000      	0.0000      	      	;	450		D
 3068                           	1814                           	1719                           	250.0000    	152.0000    	8.0000      	0.0000      	      	;	451		D
 3339                           	728                            	1968                           	360.0000    	745.0000    	0.5000      	0.0000      	      	;	452		D
 2904                           	1250                           	1242                           	80.0000     	152.0000    	4.0000      	0.0000      	      	;	453		D
 4049                           	1443                           	1464                           	240.0000    	102.0000    	3.0000      	0.0000      	      	;	454		D
 2765                           	1391                           	1397                           	70.0000     	310.0000    	15.0000     	0.0000      	      	;	455		D
 3975                           	797                            	801                            	200.0000    	152.0000    	5.0000      	0.0000      	      	;	456		D
 3677                           	186                            	182                            	884.0000    	1073.0000   	1.5000      	0.0000      	      	;	457		D
 2568                           	1473                           	1499                           	140.0000    	152.0000    	4.5000      	0.0000      	      	;	458		D
 3936                           	824                            	843                            	320.0000    	106.0000    	10.0000     	0.0000      	      	;	459		D
 2369                           	633                            	1943                           	425.0000    	765.0000    	11.0000     	0.0000      	      	;	460	M	D
 2977                           	1642                           	1625                           	330.0000    	102.0000    	3.0000      	0.0000      	      	;	461		D
 3585                           	235                            	386                            	150.0000    	102.0000    	20.0000     	0.0000      	      	;	462		D
 4041                           	641                            	665                            	200.0000    	387.0000    	20.0000     	0.0000      	      	;	463		D
 3921                           	826                            	867                            	20.0000     	319.0000    	30.0000     	0.0000      	      	;	464		D
 3412                           	504                            	1932                           	200.0000    	106.0000    	2.5000      	0.0000      	      	;	465		D
 3406                           	606                            	581                            	290.0000    	106.0000    	2.0000      	0.0000      	      	;	466		D
 4130                           	1193                           	167                            	190.0000    	97.0000     	0.0300      	0.0000      	      	;	467		D
 3650                           	1961                           	748                            	550.0000    	102.0000    	3.5000      	0.0000      	      	;	468		D
 3168                           	2021                           	1829                           	170.0000    	152.0000    	8.0000      	0.0000      	      	;	469		D
 2094                           	764                            	1972                           	200.0000    	229.0000    	3.0000      	0.0000      	      	;	470		D
 2201                           	1585                           	73                             	750.0000    	500.0000    	0.5000      	0.0000      	      	;	471		D
 4070                           	651                            	627                            	490.0000    	387.0000    	10.0000     	0.0000      	      	;	472		D
 3432                           	1934                           	605                            	300.0000    	102.0000    	3.0000      	0.0000      	      	;	473		D
 3592                           	170                            	197                            	280.0000    	102.0000    	3.0000      	0.0000      	      	;	474		D
 3643                           	199                            	240                            	90.0000     	159.0000    	1.7500      	0.0000      	      	;	475		D
 2108                           	282                            	276                            	169.0000    	152.0000    	3.5000      	0.0000      	      	;	476		D
 4052                           	359                            	346                            	140.0000    	262.0000    	8.0000      	0.0000      	      	;	477		D
 3632                           	49                             	13                             	280.0000    	102.0000    	3.0000      	0.0000      	      	;	478		D
 2357                           	627                            	750                            	970.0000    	691.0000    	3.2000      	0.0000      	      	;	479		D
 3625                           	267                            	1916                           	320.0000    	310.0000    	3.5000      	0.0000      	      	;	480		D
 2057                           	1968                           	800                            	240.0000    	319.0000    	30.0000     	0.0000      	      	;	481	M	D
 3636                           	528                            	578                            	380.0000    	152.0000    	5.0000      	0.0000      	      	;	482		D
 3430                           	445                            	454                            	150.0000    	152.0000    	3.0000      	0.0000      	      	;	483		D
 4160                           	368                            	363                            	80.0000     	159.0000    	1.7500      	0.0000      	      	;	484		D
 3291                           	435                            	491                            	270.0000    	102.0000    	3.0000      	0.0000      	      	;	485		D
 2907                           	392                            	426                            	140.0000    	152.0000    	3.5000      	0.0000      	      	;	486		D
 3442                           	1935                           	483                            	410.0000    	102.0000    	3.0000      	0.0000      	      	;	487		D
 3565                           	1645                           	1657                           	150.0000    	102.0000    	3.5000      	0.0000      	      	;	488		D
 3572                           	1548                           	1525                           	150.0000    	152.0000    	4.0000      	0.0000      	      	;	489		D
 2232                           	1891                           	146                            	160.0000    	152.0000    	3.7000      	0.0000      	      	;	490		D
 2405                           	600                            	1951                           	170.0000    	319.0000    	30.0000     	0.0000      	      	;	491		D
 3524                           	1640                           	1554                           	380.0000    	106.0000    	2.5000      	0.0000      	      	;	492		D
 3172                           	2031                           	2028                           	220.0000    	152.0000    	5.0000      	0.0000      	      	;	493	M	D
 2165                           	1749                           	1695                           	510.0000    	254.0000    	8.0000      	0.0000      	      	;	494		D
 3223                           	1990                           	1834                           	440.0000    	102.0000    	8.0000      	0.0000      	      	;	495		D
 2186                           	1551                           	1544                           	120.0000    	102.0000    	3.5000      	0.0000      	      	;	496		D
 5069                           	494                            	472                            	440.0000    	159.0000    	2.0000      	0.0000      	      	;	497		D
 5314                           	1023                           	1027                           	250.0000    	500.0000    	0.3000      	0.0000      	      	;	498		D
 3440                           	554                            	581                            	170.0000    	106.0000    	2.0000      	0.0000      	      	;	499		D
 2290                           	437                            	486                            	210.0000    	152.0000    	5.0000      	0.0000      	      	;	500		D
 3293                           	1921                           	1920                           	150.0000    	102.0000    	3.0000      	0.0000      	      	;	501		D
 3823                           	870                            	894                            	200.0000    	319.0000    	30.0000     	0.0000      	      	;	502	M	D
 2139                           	1640                           	1676                           	700.0000    	500.0000    	0.0500      	0.0000      	      	;	503		D
 2260                           	1546                           	1611                           	650.0000    	541.0000    	20.0000     	0.0000      	      	;	504		D
 3547                           	1609                           	1614                           	90.0000     	387.0000    	5.0000      	0.0000      	      	;	505		D
 3538                           	1663                           	23                             	640.0000    	387.0000    	5.0000      	0.0000      	      	;	506		D
 4923                           	1721                           	1695                           	170.0000    	254.0000    	8.0000      	0.0000      	      	;	507		D
 2181                           	1603                           	1663                           	280.0000    	152.0000    	3.5000      	0.0000      	      	;	508		D
 2341                           	402                            	182                            	2280.0000   	1073.0000   	1.5000      	0.0000      	      	;	509		D
 2231                           	123                            	162                            	260.0000    	310.0000    	20.5000     	0.0000      	      	;	510		D
 2679                           	1417                           	1430                           	370.0000    	310.0000    	15.0000     	0.0000      	      	;	511		D
 2401                           	660                            	655                            	210.0000    	102.0000    	3.0000      	0.0000      	      	;	512		D
 3127                           	1833                           	1872                           	140.0000    	159.0000    	0.0300      	0.0000      	      	;	513		D
 4864                           	1704                           	1716                           	130.0000    	254.0000    	8.0000      	0.0000      	      	;	514		D
 3574                           	1464                           	1460                           	90.0000     	229.0000    	3.0000      	0.0000      	      	;	515		D
 2176                           	1599                           	1609                           	210.0000    	387.0000    	5.0000      	0.0000      	      	;	516		D
 2288                           	1922                           	456                            	140.0000    	102.0000    	3.5000      	0.0000      	      	;	517		D
 2798                           	1267                           	1285                           	170.0000    	150.0000    	0.0300      	0.0000      	      	;	518		D
 2428                           	608                            	667                            	230.0000    	102.0000    	3.0000      	0.0000      	      	;	519		D
 2154                           	1568                           	1555                           	5.0000      	300.0000    	0.3000      	0.0000      	      	;	520		D
 4945                           	1844                           	1809                           	150.0000    	110.0000    	0.0300      	0.0000      	      	;	521		D
 2195                           	1548                           	1561                           	289.0000    	159.0000    	0.0300      	0.0000      	      	;	522		D
 2818                           	1334                           	1379                           	530.0000    	310.0000    	15.0000     	0.0000      	      	;	523		D
 2203                           	1562                           	1586                           	240.0000    	310.0000    	5.0000      	0.0000      	      	;	524		D
 3375                           	440                            	514                            	550.0000    	152.0000    	3.5000      	0.0000      	      	;	525		D
 3367                           	542                            	469                            	370.0000    	1073.0000   	2.0000      	0.0000      	      	;	526		D
 2349                           	395                            	1922                           	170.0000    	102.0000    	3.5000      	0.0000      	      	;	527		D
 4877                           	1766                           	1769                           	110.0000    	152.0000    	4.0000      	0.0000      	      	;	528		D
 2600                           	1511                           	1560                           	240.0000    	310.0000    	20.0000     	0.0000      	      	;	529		D
 3387                           	581                            	529                            	160.0000    	106.0000    	2.0000      	0.0000      	      	;	530		D
 3637                           	186                            	3004                           	1496.0000   	1073.0000   	1.5000      	0.0000      	      	;	531		D
 2073                           	728                            	592                            	1571.0000   	745.0000    	0.5000      	0.0000      	      	;	532		D
 2198                           	1712                           	1708                           	150.0000    	152.0000    	4.0000      	0.0000      	      	;	533		D
 3352                           	753                            	1965                           	240.0000    	152.0000    	5.0000      	0.0000      	      	;	534		D
 4144                           	1100                           	250                            	190.0000    	102.0000    	3.5000      	0.0000      	      	;	535		D
 2059                           	185                            	154                            	390.0000    	102.0000    	3.0000      	0.0000      	      	;	536		D
 3419                           	622                            	1956                           	700.0000    	918.0000    	1.0000      	0.0000      	      	;	537		D
 3847                           	889                            	951                            	390.0000    	918.0000    	1.0000      	0.0000      	      	;	538		D
 3392                           	1222                           	1193                           	200.0000    	97.0000     	0.0300      	0.0000      	      	;	539		D
 4062                           	1430                           	1423                           	230.0000    	310.0000    	12.5000     	0.0000      	      	;	540		D
 3418                           	1929                           	566                            	170.0000    	464.0000    	5.2000      	0.0000      	      	;	541		D
 2409                           	599                            	644                            	160.0000    	229.0000    	20.0000     	0.0000      	      	;	542		D
 2161                           	1573                           	1587                           	179.0000    	110.0000    	0.0300      	0.0000      	      	;	543		D
 2903                           	1290                           	1287                           	172.0000    	102.0000    	4.0000      	0.0000      	      	;	544		D
 2146                           	1639                           	1612                           	250.0000    	229.0000    	3.5000      	0.0000      	      	;	545		D
 4112                           	759                            	1237                           	320.0000    	102.0000    	3.0000      	0.0000      	      	;	546		D
 2124                           	144                            	267                            	500.0000    	310.0000    	3.5000      	0.0000      	      	;	547		D
 3437                           	494                            	529                            	200.0000    	106.0000    	2.0000      	0.0000      	      	;	548		D
 2140                           	1592                           	1606                           	150.0000    	102.0000    	3.5000      	0.0000      	      	;	549		D
 3474                           	482                            	469                            	1551.0000   	900.0000    	0.0500      	0.0000      	      	;	550		D
 3499                           	514                            	1933                           	11.0000     	150.0000    	4.0000      	0.0000      	      	;	551		D
 3411                           	591                            	619                            	299.0000    	152.0000    	5.0000      	0.0000      	      	;	552		D
 3943                           	811                            	1969                           	290.0000    	178.0000    	5.0000      	0.0000      	      	;	553		D
 3920                           	807                            	836                            	100.0000    	319.0000    	30.0000     	0.0000      	      	;	554		D
 3622                           	282                            	295                            	130.0000    	152.0000    	3.5000      	0.0000      	      	;	555		D
 3980                           	772                            	1973                           	140.0000    	102.0000    	10.0000     	0.0000      	      	;	556		D
 2069                           	154                            	140                            	270.0000    	102.0000    	3.0000      	0.0000      	      	;	557		D
 2599                           	23                             	60                             	720.0000    	387.0000    	20.0000     	0.0000      	      	;	558		D
 2099                           	695                            	1958                           	230.0000    	319.0000    	30.0000     	0.0000      	      	;	559		D
 2185                           	1525                           	1495                           	190.0000    	152.0000    	4.0000      	0.0000      	      	;	560		D
 2446                           	630                            	685                            	359.0000    	102.0000    	3.0000      	0.0000      	      	;	561		D
 4076                           	1113                           	1167                           	270.0000    	101.0000    	0.0300      	0.0000      	      	;	562		D
 3544                           	128                            	172                            	200.0000    	310.0000    	20.5000     	0.0000      	      	;	563		D
 3496                           	484                            	464                            	180.0000    	106.0000    	2.0000      	0.0000      	      	;	564		D
 3487                           	482                            	489                            	615.0000    	900.0000    	0.0500      	0.0000      	      	;	565		D
 3420                           	336                            	371                            	120.0000    	152.0000    	3.2000      	0.0000      	      	;	566		D
 3664                           	170                            	197                            	280.0000    	102.0000    	3.0000      	0.0000      	      	;	567		D

[PUMPS]
;;ID                             	Node1                          	Node2                          	Parameters  

[VALVES]
;;ID                             	Node1                          	Node2                          	Diameter    	Type  	Setting     	MinorLoss   
 prv                            	5555                           	120                            	400.0000    	PRV   	58.4000     	0.0000      
 1919                           	402                            	403                            	1000.0000   	TCV   	116.7000    	0.0000      

[DEMANDS]
;;Junction                       	Demand        	Pattern                        	Category                       
 1107                           	125.534500    	                               
 677                            	22.425000     	                               
 1438                           	18.563800     	                               
 1486                           	18.519400     	                               
 1623                           	18.519400     	                               
 1564                           	18.519400     	                               
 1626                           	18.519400     	                               
 1497                           	18.519400     	                               
 1994                           	16.796400     	                               
 1566                           	14.488200     	                               
 1877                           	12.288400     	                               
 1909                           	10.250000     	                               
 102                            	9.545000      	                               
 1837                           	9.115200      	                               
 1961                           	9.073400      	                               
 2038                           	8.946800      	                               
 409                            	8.850000      	                               
 1880                           	8.673500      	                               
 1239                           	8.281900      	                               
 1314                           	8.101600      	                               
 293                            	7.705000      	                               
 1082                           	7.515000      	                               
 2044                           	7.474100      	                               
 1150                           	7.357300      	                               
 743                            	7.214400      	                               
 1595                           	6.923700      	                               
 2008                           	6.603000      	                               
 1472                           	6.492700      	                               
 1998                           	6.486600      	                               
 638                            	6.447900      	                               
 522                            	6.425300      	                               
 1254                           	6.380600      	                               
 1873                           	6.303300      	                               
 1170                           	6.179400      	                               
 690                            	6.172600      	                               
 486                            	6.154100      	                               
 2031                           	6.140900      	                               
 1594                           	6.061000      	                               
 156                            	6.035800      	                               
 777                            	6.024900      	                               
 665                            	5.877600      	                               
 1310                           	5.843800      	                               
 619                            	5.803700      	                               
 378                            	5.797200      	                               
 1815                           	5.748800      	                               
 100                            	5.733600      	                               
 1450                           	5.731100      	                               
 1370                           	5.724600      	                               
 528                            	5.712300      	                               
 255                            	5.689800      	                               
 1711                           	5.633200      	                               
 1454                           	5.602400      	                               
 1259                           	5.586700      	                               
 1871                           	5.446900      	                               
 1846                           	5.431500      	                               
 2000                           	5.378600      	                               
 1132                           	5.371500      	                               
 1745                           	5.358800      	                               
 1945                           	5.353500      	                               
 1952                           	5.250600      	                               
 2045                           	5.241000      	                               
 2032                           	5.218800      	                               
 1735                           	5.165400      	                               
 1437                           	5.163600      	                               
 466                            	5.160000      	                               
 1142                           	5.159500      	                               
 1389                           	5.140400      	                               
 742                            	5.126100      	                               
 1148                           	5.113400      	                               
 110                            	5.078500      	                               
 1384                           	5.068900      	                               
 936                            	5.048600      	                               
 1582                           	5.037100      	                               
 1515                           	4.965100      	                               
 570                            	4.961400      	                               
 138                            	4.959000      	                               
 1865                           	4.941600      	                               
 437                            	4.903300      	                               
 1853                           	4.892000      	                               
 2033                           	4.886700      	                               
 1465                           	4.877100      	                               
 1869                           	4.869800      	                               
 815                            	4.868400      	                               
 1630                           	4.853400      	                               
 1820                           	4.846600      	                               
 1599                           	4.835700      	                               
 1440                           	4.832300      	                               
 2018                           	4.821600      	                               
 1801                           	4.802200      	                               
 1836                           	4.786300      	                               
 1844                           	4.786300      	                               
 8                              	4.785700      	                               
 651                            	4.780800      	                               
 851                            	4.780500      	                               
 753                            	4.757200      	                               
 2028                           	4.745300      	                               
 1965                           	4.734100      	                               
 1895                           	4.719900      	                               
 731                            	4.711500      	                               
 1531                           	4.677500      	                               
 1224                           	4.667700      	                               
 2030                           	4.654600      	                               
 2004                           	4.650900      	                               
 2009                           	4.646800      	                               
 635                            	4.625400      	                               
 410                            	4.609900      	                               
 1712                           	4.580500      	                               
 1369                           	4.558900      	                               
 1935                           	4.460000      	                               
 652                            	4.445300      	                               
 1398                           	4.439700      	                               
 1423                           	4.428100      	                               
 714                            	4.402000      	                               
 1854                           	4.395900      	                               
 1872                           	4.388100      	                               
 694                            	4.377400      	                               
 710                            	4.370600      	                               
 979                            	4.365300      	                               
 322                            	4.362000      	                               
 1348                           	4.347900      	                               
 959                            	4.335700      	                               
 1262                           	4.324500      	                               
 1825                           	4.308600      	                               
 53                             	4.304600      	                               
 1891                           	4.294000      	                               
 1435                           	4.283600      	                               
 744                            	4.265400      	                               
 1749                           	4.241000      	                               
 678                            	4.230600      	                               
 1418                           	4.224100      	                               
 1316                           	4.219600      	                               
 121                            	4.210500      	                               
 2010                           	4.191200      	                               
 1780                           	4.186700      	                               
 61                             	4.171200      	                               
 756                            	4.146300      	                               
 333                            	4.130000      	                               
 1439                           	4.129000      	                               
 1823                           	4.116900      	                               
 706                            	4.112900      	                               
 11                             	4.108600      	                               
 236                            	4.104400      	                               
 405                            	4.073000      	                               
 1424                           	4.068500      	                               
 365                            	4.067100      	                               
 304                            	4.060800      	                               
 454                            	4.048100      	                               
 1131                           	4.047400      	                               
 2011                           	4.046600      	                               
 87                             	4.013200      	                               
 1403                           	4.000400      	                               
 1876                           	3.993600      	                               
 1284                           	3.988500      	                               
 1011                           	3.986500      	                               
 967                            	3.985600      	                               
 1354                           	3.982200      	                               
 77                             	3.970100      	                               
 923                            	3.960200      	                               
 882                            	3.958200      	                               
 92                             	3.949600      	                               
 1308                           	3.948400      	                               
 609                            	3.947200      	                               
 976                            	3.932400      	                               
 418                            	3.930000      	                               
 880                            	3.924200      	                               
 1636                           	3.918900      	                               
 1920                           	3.899900      	                               
 1458                           	3.899700      	                               
 1252                           	3.885200      	                               
 893                            	3.863700      	                               
 1493                           	3.860000      	                               
 794                            	3.847500      	                               
 1625                           	3.842400      	                               
 1925                           	3.838500      	                               
 579                            	3.795300      	                               
 1491                           	3.792600      	                               
 461                            	3.790100      	                               
 326                            	3.789300      	                               
 553                            	3.779500      	                               
 10                             	3.772800      	                               
 1736                           	3.767900      	                               
 776                            	3.758600      	                               
 1642                           	3.749300      	                               
 1273                           	3.731900      	                               
 1221                           	3.727500      	                               
 282                            	3.724600      	                               
 191                            	3.722600      	                               
 1548                           	3.713100      	                               
 1269                           	3.712300      	                               
 1289                           	3.701100      	                               
 837                            	3.695400      	                               
 1459                           	3.692600      	                               
 65                             	3.687900      	                               
 1731                           	3.673200      	                               
 605                            	3.671000      	                               
 261                            	3.667300      	                               
 1499                           	3.653000      	                               
 539                            	3.652900      	                               
 1950                           	3.649500      	                               
 359                            	3.636800      	                               
 1234                           	3.626700      	                               
 305                            	3.621300      	                               
 737                            	3.612700      	                               
 383                            	3.608100      	                               
 1258                           	3.596500      	                               
 581                            	3.579600      	                               
 302                            	3.561600      	                               
 1817                           	3.557100      	                               
 1078                           	3.534700      	                               
 786                            	3.529700      	                               
 1719                           	3.517700      	                               
 555                            	3.512700      	                               
 1449                           	3.500300      	                               
 1129                           	3.496900      	                               
 1121                           	3.496900      	                               
 928                            	3.492200      	                               
 1349                           	3.491100      	                               
 1329                           	3.490500      	                               
 1177                           	3.486300      	                               
 1960                           	3.485800      	                               
 656                            	3.472700      	                               
 655                            	3.468200      	                               
 1479                           	3.461700      	                               
 292                            	3.458000      	                               
 1401                           	3.457600      	                               
 535                            	3.457600      	                               
 842                            	3.455200      	                               
 1306                           	3.448600      	                               
 1160                           	3.436500      	                               
 623                            	3.413300      	                               
 1357                           	3.405600      	                               
 704                            	3.404200      	                               
 1038                           	3.401900      	                               
 1436                           	3.401500      	                               
 641                            	3.387400      	                               
 1406                           	3.387000      	                               
 1772                           	3.385600      	                               
 1956                           	3.372600      	                               
 1663                           	3.369100      	                               
 336                            	3.365500      	                               
 501                            	3.364800      	                               
 747                            	3.363200      	                               
 617                            	3.362500      	                               
 1514                           	3.349600      	                               
 671                            	3.346700      	                               
 208                            	3.341700      	                               
 1765                           	3.340800      	                               
 1181                           	3.339700      	                               
 187                            	3.323700      	                               
 1615                           	3.312600      	                               
 136                            	3.295300      	                               
 1487                           	3.293700      	                               
 868                            	3.283300      	                               
 406                            	3.275300      	                               
 435                            	3.274100      	                               
 1788                           	3.264900      	                               
 925                            	3.262700      	                               
 1094                           	3.246700      	                               
 1141                           	3.245900      	                               
 1236                           	3.243600      	                               
 972                            	3.235500      	                               
 1412                           	3.234200      	                               
 211                            	3.226500      	                               
 682                            	3.223600      	                               
 1990                           	3.219800      	                               
 1845                           	3.216800      	                               
 1261                           	3.211100      	                               
 78                             	3.210400      	                               
 295                            	3.201700      	                               
 660                            	3.194700      	                               
 1495                           	3.188500      	                               
 1812                           	3.179200      	                               
 1818                           	3.179200      	                               
 1632                           	3.179200      	                               
 1926                           	3.178400      	                               
 578                            	3.172500      	                               
 1260                           	3.167700      	                               
 433                            	3.164100      	                               
 1878                           	3.157000      	                               
 310                            	3.148900      	                               
 548                            	3.139600      	                               
 666                            	3.134700      	                               
 1300                           	3.134700      	                               
 308                            	3.134200      	                               
 1627                           	3.130800      	                               
 857                            	3.119400      	                               
 436                            	3.107700      	                               
 377                            	3.101500      	                               
 1464                           	3.092700      	                               
 334                            	3.086200      	                               
 47                             	3.081500      	                               
 1467                           	3.078100      	                               
 285                            	3.061000      	                               
 1948                           	3.057400      	                               
 445                            	3.054200      	                               
 1957                           	3.048400      	                               
 93                             	3.047900      	                               
 1367                           	3.047900      	                               
 2037                           	3.045600      	                               
 1834                           	3.039900      	                               
 1814                           	3.037500      	                               
 1339                           	3.035100      	                               
 1165                           	3.034400      	                               
 1058                           	3.032000      	                               
 477                            	3.022800      	                               
 1140                           	3.004500      	                               
 1979                           	3.002100      	                               
 1902                           	2.996300      	                               
 128                            	2.981300      	                               
 371                            	2.980100      	                               
 1408                           	2.978900      	                               
 1426                           	2.963500      	                               
 843                            	2.960600      	                               
 631                            	2.956800      	                               
 275                            	2.955200      	                               
 1211                           	2.954800      	                               
 2013                           	2.946200      	                               
 1046                           	2.944900      	                               
 68                             	2.937200      	                               
 381                            	2.931000      	                               
 1263                           	2.923400      	                               
 1109                           	2.916700      	                               
 911                            	2.912400      	                               
 252                            	2.907900      	                               
 1695                           	2.900600      	                               
 1151                           	2.890200      	                               
 1003                           	2.884300      	                               
 1560                           	2.878100      	                               
 490                            	2.877200      	                               
 1402                           	2.870800      	                               
 819                            	2.868100      	                               
 1770                           	2.868000      	                               
 1617                           	2.865000      	                               
 1634                           	2.862100      	                               
 1739                           	2.855700      	                               
 1394                           	2.852000      	                               
 367                            	2.852000      	                               
 901                            	2.851600      	                               
 1605                           	2.845700      	                               
 169                            	2.843800      	                               
 1829                           	2.836700      	                               
 1087                           	2.831100      	                               
 1489                           	2.825800      	                               
 829                            	2.821700      	                               
 625                            	2.816500      	                               
 1337                           	2.802000      	                               
 1973                           	2.801200      	                               
 719                            	2.801200      	                               
 500                            	2.795700      	                               
 1572                           	2.791700      	                               
 1413                           	2.791400      	                               
 708                            	2.790100      	                               
 1547                           	2.775600      	                               
 662                            	2.774000      	                               
 746                            	2.772300      	                               
 951                            	2.766600      	                               
 811                            	2.758900      	                               
 12                             	2.757700      	                               
 1200                           	2.756800      	                               
 1764                           	2.753200      	                               
 1125                           	2.751500      	                               
 1927                           	2.746900      	                               
 1077                           	2.746700      	                               
 1279                           	2.743500      	                               
 1277                           	2.743500      	                               
 1351                           	2.737800      	                               
 1430                           	2.734900      	                               
 278                            	2.726600      	                               
 1164                           	2.725600      	                               
 62                             	2.719600      	                               
 122                            	2.716400      	                               
 1291                           	2.702100      	                               
 258                            	2.701800      	                               
 1342                           	2.695000      	                               
 1692                           	2.690100      	                               
 2021                           	2.680400      	                               
 2020                           	2.668300      	                               
 219                            	2.662700      	                               
 38                             	2.662300      	                               
 1969                           	2.650600      	                               
 767                            	2.648900      	                               
 1307                           	2.645600      	                               
 299                            	2.639300      	                               
 1143                           	2.636600      	                               
 1455                           	2.629800      	                               
 1887                           	2.623600      	                               
 732                            	2.623400      	                               
 1924                           	2.620100      	                               
 759                            	2.620100      	                               
 178                            	2.612000      	                               
 129                            	2.609000      	                               
 1005                           	2.603600      	                               
 1755                           	2.601200      	                               
 645                            	2.598300      	                               
 1374                           	2.598200      	                               
 982                            	2.596100      	                               
 184                            	2.592800      	                               
 1029                           	2.590100      	                               
 1842                           	2.584400      	                               
 1828                           	2.581100      	                               
 1618                           	2.578900      	                               
 196                            	2.574100      	                               
 1222                           	2.574000      	                               
 327                            	2.571800      	                               
 376                            	2.560700      	                               
 1751                           	2.559100      	                               
 640                            	2.557100      	                               
 216                            	2.556500      	                               
 1473                           	2.555700      	                               
 802                            	2.554400      	                               
 1069                           	2.545700      	                               
 1740                           	2.545400      	                               
 595                            	2.541200      	                               
 1708                           	2.539100      	                               
 613                            	2.534500      	                               
 785                            	2.533700      	                               
 1194                           	2.529500      	                               
 155                            	2.524200      	                               
 1699                           	2.516900      	                               
 670                            	2.516800      	                               
 36                             	2.512400      	                               
 1443                           	2.508300      	                               
 1100                           	2.499000      	                               
 1068                           	2.498400      	                               
 1525                           	2.497000      	                               
 845                            	2.490000      	                               
 1496                           	2.485400      	                               
 1364                           	2.467500      	                               
 669                            	2.462300      	                               
 188                            	2.458400      	                               
 915                            	2.456300      	                               
 1072                           	2.456200      	                               
 425                            	2.453700      	                               
 622                            	2.453400      	                               
 457                            	2.450800      	                               
 634                            	2.445500      	                               
 1425                           	2.439800      	                               
 627                            	2.435400      	                               
 150                            	2.431500      	                               
 431                            	2.421000      	                               
 70                             	2.415200      	                               
 35                             	2.412300      	                               
 1800                           	2.412200      	                               
 606                            	2.412100      	                               
 1980                           	2.409000      	                               
 588                            	2.401100      	                               
 1537                           	2.397800      	                               
 1393                           	2.394800      	                               
 1483                           	2.385500      	                               
 1                              	2.379600      	                               
 1641                           	2.377400      	                               
 760                            	2.368300      	                               
 1355                           	2.367200      	                               
 644                            	2.364100      	                               
 1862                           	2.356600      	                               
 683                            	2.349900      	                               
 1910                           	2.346000      	                               
 204                            	2.345100      	                               
 430                            	2.340000      	                               
 267                            	2.338900      	                               
 1311                           	2.323700      	                               
 1122                           	2.318400      	                               
 512                            	2.317400      	                               
 833                            	2.313600      	                               
 681                            	2.311700      	                               
 1385                           	2.305100      	                               
 117                            	2.304700      	                               
 1371                           	2.296300      	                               
 1516                           	2.293300      	                               
 698                            	2.286100      	                               
 434                            	2.282000      	                               
 449                            	2.281500      	                               
 1587                           	2.275500      	                               
 585                            	2.271100      	                               
 1580                           	2.266600      	                               
 1533                           	2.258100      	                               
 51                             	2.258000      	                               
 515                            	2.245500      	                               
 858                            	2.242900      	                               
 385                            	2.241300      	                               
 667                            	2.237400      	                               
 1803                           	2.231200      	                               
 498                            	2.227100      	                               
 1917                           	2.222500      	                               
 142                            	2.219200      	                               
 949                            	2.217000      	                               
 1388                           	2.214500      	                               
 1593                           	2.212000      	                               
 1485                           	2.204400      	                               
 1356                           	2.203800      	                               
 1885                           	2.201000      	                               
 1771                           	2.201000      	                               
 1295                           	2.201000      	                               
 1898                           	2.197400      	                               
 243                            	2.187100      	                               
 99                             	2.185900      	                               
 1243                           	2.178700      	                               
 1383                           	2.177900      	                               
 344                            	2.177100      	                               
 321                            	2.175200      	                               
 1225                           	2.173400      	                               
 54                             	2.169400      	                               
 245                            	2.169000      	                               
 1171                           	2.159300      	                               
 1235                           	2.158400      	                               
 213                            	2.157300      	                               
 472                            	2.156500      	                               
 1727                           	2.156500      	                               
 1864                           	2.156500      	                               
 1962                           	2.156500      	                               
 1863                           	2.156500      	                               
 1964                           	2.145000      	                               
 1860                           	2.139400      	                               
 1650                           	2.138800      	                               
 514                            	2.134300      	                               
 366                            	2.133600      	                               
 1220                           	2.130600      	                               
 1508                           	2.127000      	                               
 597                            	2.125100      	                               
 940                            	2.121300      	                               
 793                            	2.107100      	                               
 1461                           	2.107000      	                               
 483                            	2.102200      	                               
 137                            	2.100500      	                               
 1353                           	2.098700      	                               
 1184                           	2.098700      	                               
 1193                           	2.098700      	                               
 1312                           	2.089800      	                               
 140                            	2.088600      	                               
 1944                           	2.083200      	                               
 1802                           	2.081800      	                               
 1330                           	2.079200      	                               
 234                            	2.077500      	                               
 56                             	2.074500      	                               
 1710                           	2.073600      	                               
 1375                           	2.067300      	                               
 1360                           	2.065800      	                               
 75                             	2.065400      	                               
 1674                           	2.063500      	                               
 419                            	2.063500      	                               
 847                            	2.057100      	                               
 1698                           	2.051400      	                               
 1700                           	2.051400      	                               
 840                            	2.050700      	                               
 810                            	2.049500      	                               
 877                            	2.044100      	                               
 1429                           	2.037100      	                               
 1758                           	2.031800      	                               
 713                            	2.025000      	                               
 251                            	2.025000      	                               
 1624                           	2.022800      	                               
 1601                           	2.022800      	                               
 411                            	2.017400      	                               
 88                             	2.016100      	                               
 1480                           	2.007400      	                               
 44                             	2.003700      	                               
 194                            	2.003600      	                               
 335                            	2.001300      	                               
 1191                           	1.999100      	                               
 1214                           	1.998700      	                               
 696                            	1.994100      	                               
 1006                           	1.993800      	                               
 112                            	1.992300      	                               
 1934                           	1.984300      	                               
 1304                           	1.981000      	                               
 1478                           	1.980200      	                               
 96                             	1.979800      	                               
 1721                           	1.979800      	                               
 1153                           	1.974300      	                               
 180                            	1.973700      	                               
 201                            	1.972100      	                               
 388                            	1.965700      	                               
 1055                           	1.960100      	                               
 1638                           	1.956400      	                               
 1199                           	1.956400      	                               
 485                            	1.950400      	                               
 648                            	1.947900      	                               
 896                            	1.940200      	                               
 1936                           	1.939900      	                               
 1103                           	1.938000      	                               
 1970                           	1.935100      	                               
 463                            	1.934400      	                               
 233                            	1.934200      	                               
 2014                           	1.930100      	                               
 1611                           	1.929800      	                               
 712                            	1.929700      	                               
 1940                           	1.912800      	                               
 1386                           	1.912600      	                               
 499                            	1.911900      	                               
 1677                           	1.911900      	                               
 1004                           	1.906700      	                               
 1716                           	1.901900      	                               
 230                            	1.901400      	                               
 740                            	1.899900      	                               
 1063                           	1.899800      	                               
 1428                           	1.899400      	                               
 1204                           	1.899200      	                               
 28                             	1.898300      	                               
 1616                           	1.893900      	                               
 441                            	1.892900      	                               
 1975                           	1.891200      	                               
 1743                           	1.889700      	                               
 557                            	1.889500      	                               
 1365                           	1.883100      	                               
 1835                           	1.882000      	                               
 836                            	1.875700      	                               
 397                            	1.874100      	                               
 1756                           	1.868900      	                               
 491                            	1.865200      	                               
 1773                           	1.863100      	                               
 1521                           	1.860600      	                               
 1750                           	1.860100      	                               
 1167                           	1.855300      	                               
 1124                           	1.854100      	                               
 1989                           	1.849500      	                               
 800                            	1.848000      	                               
 1831                           	1.847900      	                               
 1985                           	1.846600      	                               
 1833                           	1.844900      	                               
 1123                           	1.842200      	                               
 1939                           	1.842100      	                               
 179                            	1.841900      	                               
 1417                           	1.841400      	                               
 247                            	1.837100      	                               
 177                            	1.834200      	                               
 1686                           	1.833100      	                               
 941                            	1.830000      	                               
 881                            	1.824800      	                               
 131                            	1.817300      	                               
 1886                           	1.811300      	                               
 2017                           	1.810800      	                               
 1672                           	1.808900      	                               
 206                            	1.805800      	                               
 910                            	1.804500      	                               
 772                            	1.800800      	                               
 503                            	1.800000      	                               
 109                            	1.797400      	                               
 63                             	1.794000      	                               
 908                            	1.789600      	                               
 879                            	1.788000      	                               
 134                            	1.787500      	                               
 1702                           	1.785800      	                               
 1407                           	1.785800      	                               
 1653                           	1.784600      	                               
 2025                           	1.783900      	                               
 181                            	1.783100      	                               
 920                            	1.782300      	                               
 329                            	1.780500      	                               
 341                            	1.778400      	                               
 1466                           	1.778000      	                               
 1245                           	1.776400      	                               
 1664                           	1.773700      	                               
 459                            	1.771900      	                               
 59                             	1.771800      	                               
 1606                           	1.771500      	                               
 917                            	1.767400      	                               
 924                            	1.766200      	                               
 1482                           	1.763400      	                               
 1474                           	1.761300      	                               
 256                            	1.759200      	                               
 1822                           	1.756300      	                               
 444                            	1.751800      	                               
 1718                           	1.748900      	                               
 487                            	1.748000      	                               
 1021                           	1.746000      	                               
 654                            	1.742200      	                               
 185                            	1.741700      	                               
 5399                           	1.735700      	                               
 1819                           	1.735700      	                               
 1794                           	1.734800      	                               
 1332                           	1.734100      	                               
 736                            	1.734100      	                               
 943                            	1.732800      	                               
 1527                           	1.730700      	                               
 1415                           	1.728800      	                               
 460                            	1.726400      	                               
 1352                           	1.721700      	                               
 2034                           	1.721500      	                               
 543                            	1.721200      	                               
 1559                           	1.720800      	                               
 83                             	1.719800      	                               
 973                            	1.711900      	                               
 1916                           	1.708900      	                               
 154                            	1.707800      	                               
 1188                           	1.688800      	                               
 1113                           	1.687700      	                               
 494                            	1.686700      	                               
 1392                           	1.683000      	                               
 1237                           	1.682000      	                               
 709                            	1.680700      	                               
 1589                           	1.680100      	                               
 224                            	1.675900      	                               
 1104                           	1.670100      	                               
 263                            	1.669300      	                               
 1691                           	1.668000      	                               
 1717                           	1.667400      	                               
 1509                           	1.667400      	                               
 735                            	1.666700      	                               
 1395                           	1.664400      	                               
 1643                           	1.662300      	                               
 1507                           	1.657900      	                               
 1933                           	1.656300      	                               
 1518                           	1.654300      	                               
 104                            	1.653500      	                               
 1274                           	1.651800      	                               
 225                            	1.651700      	                               
 1707                           	1.650600      	                               
 523                            	1.650000      	                               
 1197                           	1.648900      	                               
 1007                           	1.648600      	                               
 2039                           	1.648500      	                               
 1629                           	1.645200      	                               
 467                            	1.640800      	                               
 504                            	1.639100      	                               
 205                            	1.631700      	                               
 1275                           	1.629600      	                               
 1159                           	1.623700      	                               
 574                            	1.622900      	                               
 97                             	1.622700      	                               
 1334                           	1.622600      	                               
 508                            	1.620000      	                               
 1073                           	1.617400      	                               
 1411                           	1.616900      	                               
 495                            	1.615100      	                               
 291                            	1.612900      	                               
 590                            	1.612100      	                               
 1753                           	1.609900      	                               
 464                            	1.603100      	                               
 1336                           	1.600700      	                               
 227                            	1.595200      	                               
 1488                           	1.594900      	                               
 1504                           	1.594300      	                               
 1399                           	1.591600      	                               
 5                              	1.588700      	                               
 1586                           	1.588200      	                               
 1293                           	1.588200      	                               
 1340                           	1.587400      	                               
 484                            	1.586100      	                               
 600                            	1.584200      	                               
 628                            	1.580300      	                               
 42                             	1.578500      	                               
 814                            	1.578500      	                               
 1115                           	1.568900      	                               
 424                            	1.568800      	                               
 1963                           	1.563900      	                               
 1662                           	1.563700      	                               
 1414                           	1.558500      	                               
 1575                           	1.558300      	                               
 1322                           	1.557900      	                               
 818                            	1.556300      	                               
 25                             	1.556300      	                               
 496                            	1.554300      	                               
 1302                           	1.553300      	                               
 674                            	1.551900      	                               
 1520                           	1.549100      	                               
 1421                           	1.541700      	                               
 1410                           	1.541100      	                               
 158                            	1.528700      	                               
 593                            	1.526100      	                               
 1456                           	1.526000      	                               
 1635                           	1.520700      	                               
 1639                           	1.520700      	                               
 209                            	1.519300      	                               
 1463                           	1.518200      	                               
 954                            	1.518200      	                               
 1335                           	1.517500      	                               
 1420                           	1.517500      	                               
 903                            	1.515700      	                               
 375                            	1.513000      	                               
 1517                           	1.511000      	                               
 1404                           	1.510400      	                               
 217                            	1.505100      	                               
 755                            	1.504200      	                               
 349                            	1.500000      	                               
 1541                           	1.499500      	                               
 212                            	1.497100      	                               
 1179                           	1.493300      	                               
 1720                           	1.492000      	                               
 1723                           	1.492000      	                               
 1315                           	1.490600      	                               
 869                            	1.489500      	                               
 395                            	1.488500      	                               
 160                            	1.488100      	                               
 1345                           	1.487700      	                               
 1579                           	1.483800      	                               
 551                            	1.481400      	                               
 1607                           	1.478700      	                               
 1470                           	1.477300      	                               
 309                            	1.477100      	                               
 513                            	1.475400      	                               
 475                            	1.472800      	                               
 1900                           	1.472000      	                               
 244                            	1.468800      	                               
 944                            	1.468300      	                               
 1633                           	1.467300      	                               
 629                            	1.467100      	                               
 148                            	1.466900      	                               
 1923                           	1.466600      	                               
 1571                           	1.463200      	                               
 1144                           	1.461900      	                               
 345                            	1.457700      	                               
 1018                           	1.456300      	                               
 1086                           	1.455500      	                               
 426                            	1.453700      	                               
 509                            	1.453100      	                               
 701                            	1.451700      	                               
 1195                           	1.445100      	                               
 2003                           	1.445100      	                               
 1139                           	1.442900      	                               
 241                            	1.438500      	                               
 1696                           	1.436300      	                               
 1608                           	1.435300      	                               
 1013                           	1.431300      	                               
 167                            	1.431100      	                               
 290                            	1.431000      	                               
 521                            	1.427500      	                               
 382                            	1.424900      	                               
 1247                           	1.424100      	                               
 373                            	1.424100      	                               
 934                            	1.424000      	                               
 1169                           	1.423900      	                               
 1158                           	1.419800      	                               
 52                             	1.416100      	                               
 1954                           	1.414800      	                               
 103                            	1.414200      	                               
 200                            	1.414100      	                               
 106                            	1.413800      	                               
 1621                           	1.413300      	                               
 1290                           	1.412700      	                               
 679                            	1.412100      	                               
 806                            	1.410800      	                               
 603                            	1.407100      	                               
 1578                           	1.404000      	                               
 1500                           	1.403700      	                               
 1445                           	1.402900      	                               
 1726                           	1.400600      	                               
 17                             	1.400600      	                               
 1442                           	1.396100      	                               
 598                            	1.389600      	                               
 1889                           	1.389000      	                               
 1053                           	1.388600      	                               
 1350                           	1.386000      	                               
 1344                           	1.385500      	                               
 1346                           	1.385500      	                               
 931                            	1.382100      	                               
 401                            	1.381700      	                               
 1492                           	1.380200      	                               
 399                            	1.379300      	                               
 3                              	1.378800      	                               
 950                            	1.378400      	                               
 1912                           	1.378400      	                               
 58                             	1.375600      	                               
 568                            	1.372000      	                               
 552                            	1.371800      	                               
 1596                           	1.371200      	                               
 1008                           	1.370000      	                               
 152                            	1.369600      	                               
 1363                           	1.368100      	                               
 1309                           	1.365700      	                               
 1232                           	1.362300      	                               
 237                            	1.358200      	                               
 392                            	1.355600      	                               
 978                            	1.352900      	                               
 1511                           	1.350400      	                               
 379                            	1.344500      	                               
 1213                           	1.343300      	                               
 1462                           	1.340800      	                               
 716                            	1.335400      	                               
 883                            	1.334600      	                               
 300                            	1.332800      	                               
 1397                           	1.332000      	                               
 1320                           	1.331800      	                               
 1588                           	1.325000      	                               
 1296                           	1.320800      	                               
 446                            	1.318400      	                               
 2043                           	1.316900      	                               
 254                            	1.315000      	                               
 218                            	1.313300      	                               
 1763                           	1.313200      	                               
 561                            	1.311700      	                               
 1281                           	1.309900      	                               
 2042                           	1.309800      	                               
 287                            	1.309100      	                               
 1911                           	1.306800      	                               
 1319                           	1.296100      	                               
 1510                           	1.296100      	                               
 895                            	1.295700      	                               
 1544                           	1.295200      	                               
 932                            	1.294800      	                               
 111                            	1.293300      	                               
 711                            	1.293100      	                               
 162                            	1.291700      	                               
 1303                           	1.289500      	                               
 519                            	1.289500      	                               
 1048                           	1.287800      	                               
 417                            	1.286400      	                               
 1986                           	1.285300      	                               
 221                            	1.284600      	                               
 1064                           	1.284100      	                               
 248                            	1.283800      	                               
 1323                           	1.283400      	                               
 725                            	1.279200      	                               
 423                            	1.273400      	                               
 2024                           	1.271700      	                               
 965                            	1.270700      	                               
 82                             	1.269600      	                               
 824                            	1.267200      	                               
 1321                           	1.266300      	                               
 1577                           	1.264900      	                               
 175                            	1.264100      	                               
 164                            	1.264100      	                               
 647                            	1.262500      	                               
 939                            	1.255000      	                               
 356                            	1.253200      	                               
 296                            	1.252900      	                               
 149                            	1.251200      	                               
 1271                           	1.250500      	                               
 1257                           	1.250500      	                               
 1915                           	1.249000      	                               
 1928                           	1.247900      	                               
 249                            	1.247600      	                               
 1112                           	1.247400      	                               
 105                            	1.247000      	                               
 702                            	1.245300      	                               
 538                            	1.245100      	                               
 1196                           	1.245000      	                               
 273                            	1.245000      	                               
 906                            	1.243700      	                               
 270                            	1.242500      	                               
 1748                           	1.242300      	                               
 107                            	1.241500      	                               
 215                            	1.240600      	                               
 286                            	1.240100      	                               
 1209                           	1.234100      	                               
 558                            	1.231100      	                               
 1390                           	1.227600      	                               
 554                            	1.222800      	                               
 492                            	1.217000      	                               
 1859                           	1.215400      	                               
 927                            	1.213400      	                               
 1433                           	1.211000      	                               
 871                            	1.203300      	                               
 1905                           	1.203200      	                               
 873                            	1.200500      	                               
 257                            	1.199200      	                               
 363                            	1.195000      	                               
 1907                           	1.194000      	                               
 1892                           	1.193300      	                               
 1847                           	1.193200      	                               
 1343                           	1.192800      	                               
 1157                           	1.192400      	                               
 751                            	1.189800      	                               
 1687                           	1.189700      	                               
 1154                           	1.189600      	                               
 1694                           	1.189100      	                               
 1535                           	1.186400      	                               
 724                            	1.186400      	                               
 408                            	1.186000      	                               
 159                            	1.183100      	                               
 1249                           	1.178300      	                               
 462                            	1.174100      	                               
 718                            	1.171600      	                               
 1173                           	1.170700      	                               
 992                            	1.170600      	                               
 429                            	1.170000      	                               
 1558                           	1.168800      	                               
 1583                           	1.167200      	                               
 1832                           	1.166200      	                               
 602                            	1.165900      	                               
 387                            	1.163100      	                               
 781                            	1.162300      	                               
 1523                           	1.161800      	                               
 1786                           	1.159700      	                               
 862                            	1.158200      	                               
 240                            	1.157500      	                               
 1172                           	1.157500      	                               
 707                            	1.156800      	                               
 912                            	1.156000      	                               
 1804                           	1.156000      	                               
 1734                           	1.156000      	                               
 534                            	1.153900      	                               
 530                            	1.153900      	                               
 101                            	1.153100      	                               
 1471                           	1.152900      	                               
 1543                           	1.152600      	                               
 1513                           	1.149700      	                               
 608                            	1.147800      	                               
 1475                           	1.147500      	                               
 1565                           	1.146400      	                               
 1921                           	1.143900      	                               
 1538                           	1.143900      	                               
 1116                           	1.142800      	                               
 37                             	1.140200      	                               
 1741                           	1.139500      	                               
 1744                           	1.139500      	                               
 81                             	1.138000      	                               
 1501                           	1.137800      	                               
 792                            	1.137600      	                               
 577                            	1.133000      	                               
 1532                           	1.132600      	                               
 1333                           	1.132200      	                               
 1227                           	1.132000      	                               
 95                             	1.131300      	                               
 1747                           	1.127200      	                               
 1754                           	1.127200      	                               
 450                            	1.125900      	                               
 1490                           	1.124900      	                               
 1972                           	1.124700      	                               
 348                            	1.124000      	                               
 422                            	1.123800      	                               
 2047                           	1.122500      	                               
 1746                           	1.119100      	                               
 250                            	1.118700      	                               
 391                            	1.118000      	                               
 1996                           	1.117800      	                               
 197                            	1.116700      	                               
 210                            	1.116700      	                               
 1701                           	1.116400      	                               
 1715                           	1.116400      	                               
 1598                           	1.116200      	                               
 1590                           	1.116200      	                               
 1913                           	1.114000      	                               
 559                            	1.113900      	                               
 657                            	1.112900      	                               
 1703                           	1.111600      	                               
 1223                           	1.111600      	                               
 1637                           	1.111600      	                               
 855                            	1.111600      	                               
 1706                           	1.111600      	                               
 1022                           	1.111100      	                               
 517                            	1.109500      	                               
 1775                           	1.108800      	                               
 1918                           	1.106600      	                               
 1545                           	1.104200      	                               
 1875                           	1.103900      	                               
 1861                           	1.103900      	                               
 820                            	1.102800      	                               
 1931                           	1.102700      	                               
 721                            	1.102600      	                               
 2023                           	1.100700      	                               
 144                            	1.100400      	                               
 685                            	1.100400      	                               
 1897                           	1.099500      	                               
 1217                           	1.098500      	                               
 1280                           	1.096800      	                               
 571                            	1.094800      	                               
 1705                           	1.094200      	                               
 339                            	1.093100      	                               
 1830                           	1.089400      	                               
 1255                           	1.085700      	                               
 1671                           	1.082300      	                               
 546                            	1.082100      	                               
 319                            	1.076800      	                               
 516                            	1.071100      	                               
 1760                           	1.069200      	                               
 1592                           	1.064800      	                               
 1244                           	1.063500      	                               
 26                             	1.059600      	                               
 1857                           	1.059400      	                               
 297                            	1.053600      	                               
 320                            	1.051800      	                               
 1387                           	1.051500      	                               
 456                            	1.050400      	                               
 404                            	1.049300      	                               
 173                            	1.047700      	                               
 1709                           	1.047600      	                               
 1888                           	1.047100      	                               
 563                            	1.044900      	                               
 1452                           	1.038800      	                               
 427                            	1.038100      	                               
 229                            	1.036200      	                               
 1347                           	1.033100      	                               
 1848                           	1.031600      	                               
 1838                           	1.031600      	                               
 892                            	1.029400      	                               
 76                             	1.027000      	                               
 1841                           	1.024900      	                               
 676                            	1.023900      	                               
 1809                           	1.023400      	                               
 5402                           	1.023400      	                               
 1266                           	1.023300      	                               
 686                            	1.022700      	                               
 1341                           	1.022700      	                               
 1359                           	1.022700      	                               
 1185                           	1.017300      	                               
 1551                           	1.017300      	                               
 474                            	1.010200      	                               
 1133                           	1.004400      	                               
 1850                           	1.002700      	                               
 1552                           	1.001000      	                               
 274                            	1.000800      	                               
 29                             	1.000400      	                               
 636                            	1.000400      	                               
 439                            	0.999400      	                               
 1149                           	0.997700      	                               
 421                            	0.995100      	                               
 1542                           	0.989700      	                               
 34                             	0.989200      	                               
 916                            	0.988900      	                               
 1095                           	0.988600      	                               
 1688                           	0.986200      	                               
 1679                           	0.986200      	                               
 1689                           	0.986200      	                               
 902                            	0.985500      	                               
 582                            	0.984900      	                               
 963                            	0.983500      	                               
 1704                           	0.983200      	                               
 1268                           	0.981800      	                               
 1534                           	0.979300      	                               
 1002                           	0.978700      	                               
 220                            	0.977000      	                               
 684                            	0.973900      	                               
 506                            	0.972200      	                               
 969                            	0.972100      	                               
 125                            	0.971300      	                               
 1120                           	0.971300      	                               
 1093                           	0.971200      	                               
 850                            	0.969700      	                               
 1644                           	0.966300      	                               
 779                            	0.963700      	                               
 1233                           	0.963600      	                               
 828                            	0.961500      	                               
 1301                           	0.958800      	                               
 799                            	0.951400      	                               
 89                             	0.950700      	                               
 331                            	0.950700      	                               
 1283                           	0.949100      	                               
 1762                           	0.947900      	                               
 324                            	0.947600      	                               
 420                            	0.941900      	                               
 1419                           	0.941600      	                               
 1937                           	0.937400      	                               
 573                            	0.937400      	                               
 1427                           	0.928100      	                               
 1240                           	0.927200      	                               
 749                            	0.926500      	                               
 1373                           	0.925900      	                               
 1640                           	0.925500      	                               
 21                             	0.924700      	                               
 393                            	0.923800      	                               
 1811                           	0.922400      	                               
 1930                           	0.916900      	                               
 202                            	0.915300      	                               
 1162                           	0.913600      	                               
 174                            	0.911800      	                               
 176                            	0.911600      	                               
 351                            	0.911300      	                               
 1951                           	0.909500      	                               
 637                            	0.909400      	                               
 650                            	0.909400      	                               
 1292                           	0.907600      	                               
 527                            	0.902800      	                               
 412                            	0.901900      	                               
 1759                           	0.898400      	                               
 807                            	0.897400      	                               
 1971                           	0.893300      	                               
 587                            	0.892600      	                               
 27                             	0.892300      	                               
 123                            	0.892300      	                               
 118                            	0.892000      	                               
 1737                           	0.889300      	                               
 738                            	0.889300      	                               
 730                            	0.887500      	                               
 1448                           	0.884900      	                               
 1799                           	0.884100      	                               
 2015                           	0.878900      	                               
 1874                           	0.878600      	                               
 189                            	0.874400      	                               
 127                            	0.873200      	                               
 119                            	0.873200      	                               
 1821                           	0.869700      	                               
 1446                           	0.869100      	                               
 796                            	0.868000      	                               
 414                            	0.866100      	                               
 1032                           	0.863600      	                               
 279                            	0.860200      	                               
 1278                           	0.852200      	                               
 1810                           	0.847600      	                               
 1757                           	0.844800      	                               
 1546                           	0.842400      	                               
 49                             	0.840400      	                               
 788                            	0.840000      	                               
 1536                           	0.837300      	                               
 1631                           	0.837300      	                               
 918                            	0.834500      	                               
 1242                           	0.833700      	                               
 885                            	0.832700      	                               
 390                            	0.830300      	                               
 562                            	0.829700      	                               
 416                            	0.827600      	                               
 9                              	0.825900      	                               
 277                            	0.822200      	                               
 1553                           	0.820100      	                               
 1778                           	0.819100      	                               
 368                            	0.819000      	                               
 1331                           	0.816200      	                               
 835                            	0.813100      	                               
 1792                           	0.811500      	                               
 1729                           	0.811400      	                               
 1868                           	0.805000      	                               
 317                            	0.804000      	                               
 1135                           	0.803600      	                               
 1852                           	0.801400      	                               
 1867                           	0.801400      	                               
 536                            	0.800400      	                               
 1782                           	0.800100      	                               
 4                              	0.798800      	                               
 1313                           	0.795700      	                               
 1288                           	0.794300      	                               
 438                            	0.793700      	                               
 1230                           	0.790700      	                               
 1724                           	0.789100      	                               
 2041                           	0.787400      	                               
 1067                           	0.786800      	                               
 1379                           	0.786600      	                               
 145                            	0.784900      	                               
 141                            	0.784900      	                               
 1793                           	0.783700      	                               
 1713                           	0.782700      	                               
 1382                           	0.781400      	                               
 537                            	0.781000      	                               
 139                            	0.780600      	                               
 1808                           	0.779300      	                               
 1614                           	0.778100      	                               
 2036                           	0.776600      	                               
 668                            	0.776400      	                               
 1187                           	0.774500      	                               
 863                            	0.771700      	                               
 214                            	0.770100      	                               
 60                             	0.769400      	                               
 1675                           	0.768600      	                               
 1768                           	0.767000      	                               
 1779                           	0.767000      	                               
 1231                           	0.766000      	                               
 1317                           	0.764500      	                               
 1318                           	0.764500      	                               
 1372                           	0.764400      	                               
 790                            	0.760700      	                               
 1840                           	0.758100      	                               
 1270                           	0.756800      	                               
 529                            	0.755900      	                               
 900                            	0.755000      	                               
 80                             	0.754200      	                               
 1099                           	0.748400      	                               
 1166                           	0.748300      	                               
 945                            	0.742800      	                               
 389                            	0.738400      	                               
 827                            	0.738000      	                               
 1849                           	0.735900      	                               
 768                            	0.734900      	                               
 1569                           	0.733700      	                               
 1409                           	0.733500      	                               
 2006                           	0.732600      	                               
 69                             	0.732500      	                               
 783                            	0.732100      	                               
 1238                           	0.732100      	                               
 260                            	0.730900      	                               
 1071                           	0.729200      	                               
 615                            	0.727000      	                               
 268                            	0.725900      	                               
 618                            	0.725900      	                               
 1530                           	0.722700      	                               
 762                            	0.719800      	                               
 1997                           	0.718700      	                               
 306                            	0.712500      	                               
 350                            	0.712200      	                               
 332                            	0.711400      	                               
 1646                           	0.710500      	                               
 289                            	0.709900      	                               
 639                            	0.708100      	                               
 1682                           	0.707000      	                               
 1941                           	0.706700      	                               
 1967                           	0.702900      	                               
 773                            	0.702900      	                               
 1250                           	0.702300      	                               
 235                            	0.700500      	                               
 440                            	0.699700      	                               
 298                            	0.696800      	                               
 170                            	0.696200      	                               
 653                            	0.693700      	                               
 870                            	0.693300      	                               
 1766                           	0.690200      	                               
 624                            	0.687900      	                               
 1366                           	0.686900      	                               
 1597                           	0.685100      	                               
 153                            	0.682000      	                               
 328                            	0.681900      	                               
 1894                           	0.680200      	                               
 1776                           	0.678800      	                               
 239                            	0.678300      	                               
 13                             	0.676500      	                               
 1178                           	0.674500      	                               
 222                            	0.674500      	                               
 1248                           	0.674100      	                               
 1481                           	0.673200      	                               
 705                            	0.672900      	                               
 497                            	0.672500      	                               
 493                            	0.672500      	                               
 1338                           	0.671700      	                               
 894                            	0.671300      	                               
 864                            	0.671000      	                               
 1265                           	0.667000      	                               
 1660                           	0.667000      	                               
 198                            	0.661300      	                               
 518                            	0.659900      	                               
 98                             	0.659100      	                               
 264                            	0.656000      	                               
 386                            	0.654300      	                               
 812                            	0.651600      	                               
 889                            	0.648800      	                               
 567                            	0.646700      	                               
 1968                           	0.645800      	                               
 673                            	0.645400      	                               
 1226                           	0.644700      	                               
 1362                           	0.639200      	                               
 407                            	0.632300      	                               
 132                            	0.630800      	                               
 330                            	0.628400      	                               
 1807                           	0.627000      	                               
 1494                           	0.626100      	                               
 1327                           	0.625000      	                               
 1378                           	0.624900      	                               
 1949                           	0.623200      	                               
 1145                           	0.622500      	                               
 1657                           	0.617400      	                               
 303                            	0.607100      	                               
 1870                           	0.604700      	                               
 1119                           	0.603000      	                               
 1391                           	0.602600      	                               
 147                            	0.602500      	                               
 775                            	0.602500      	                               
 1416                           	0.600600      	                               
 1570                           	0.595500      	                               
 1563                           	0.595500      	                               
 1784                           	0.592800      	                               
 1783                           	0.592800      	                               
 1453                           	0.590500      	                               
 1562                           	0.586600      	                               
 1581                           	0.584100      	                               
 165                            	0.583800      	                               
 646                            	0.581000      	                               
 1673                           	0.579800      	                               
 1806                           	0.579800      	                               
 778                            	0.579100      	                               
 826                            	0.578000      	                               
 822                            	0.578000      	                               
 1984                           	0.578000      	                               
 1805                           	0.576500      	                               
 90                             	0.574500      	                               
 1405                           	0.571500      	                               
 199                            	0.569400      	                               
 1549                           	0.568200      	                               
 1813                           	0.566100      	                               
 114                            	0.565700      	                               
 1210                           	0.562800      	                               
 2029                           	0.562100      	                               
 1977                           	0.562100      	                               
 2040                           	0.562100      	                               
 2035                           	0.562100      	                               
 1728                           	0.558500      	                               
 589                            	0.555800      	                               
 398                            	0.555100      	                               
 675                            	0.554700      	                               
 649                            	0.553600      	                               
 1460                           	0.553200      	                               
 190                            	0.550500      	                               
 195                            	0.544300      	                               
 964                            	0.540700      	                               
 1381                           	0.536900      	                               
 1506                           	0.536000      	                               
 1851                           	0.535000      	                               
 1843                           	0.535000      	                               
 1839                           	0.535000      	                               
 658                            	0.534000      	                               
 757                            	0.533600      	                               
 1264                           	0.528400      	                               
 763                            	0.521300      	                               
 1326                           	0.520000      	                               
 750                            	0.512000      	                               
 1215                           	0.511300      	                               
 1256                           	0.511300      	                               
 621                            	0.511300      	                               
 2016                           	0.511200      	                               
 853                            	0.510200      	                               
 242                            	0.505700      	                               
 1526                           	0.505400      	                               
 168                            	0.505100      	                               
 124                            	0.504200      	                               
 664                            	0.500000      	                               
 157                            	0.499100      	                               
 1651                           	0.498000      	                               
 1014                           	0.491900      	                               
 207                            	0.490300      	                               
 748                            	0.489800      	                               
 1742                           	0.489100      	                               
 396                            	0.487500      	                               
 955                            	0.484900      	                               
 1647                           	0.482100      	                               
 1929                           	0.473300      	                               
 32                             	0.468100      	                               
 1603                           	0.466900      	                               
 1899                           	0.453100      	                               
 413                            	0.452300      	                               
 852                            	0.451200      	                               
 1001                           	0.450600      	                               
 795                            	0.450500      	                               
 1457                           	0.449400      	                               
 1136                           	0.446900      	                               
 699                            	0.445600      	                               
 1228                           	0.444800      	                               
 1947                           	0.444600      	                               
 766                            	0.441300      	                               
 560                            	0.438500      	                               
 1981                           	0.435900      	                               
 269                            	0.433500      	                               
 861                            	0.432100      	                               
 859                            	0.432100      	                               
 1769                           	0.425400      	                               
 415                            	0.423400      	                               
 575                            	0.422400      	                               
 1609                           	0.422400      	                               
 1108                           	0.421200      	                               
 816                            	0.413100      	                               
 476                            	0.412000      	                               
 2046                           	0.411700      	                               
 874                            	0.410900      	                               
 1958                           	0.410300      	                               
 453                            	0.409800      	                               
 20                             	0.409000      	                               
 841                            	0.404800      	                               
 448                            	0.404200      	                               
 1451                           	0.403400      	                               
 680                            	0.400200      	                               
 1096                           	0.400200      	                               
 1938                           	0.400200      	                               
 752                            	0.398500      	                               
 347                            	0.397700      	                               
 565                            	0.389300      	                               
 1645                           	0.389100      	                               
 1959                           	0.388100      	                               
 803                            	0.384400      	                               
 2026                           	0.383400      	                               
 23                             	0.381100      	                               
 193                            	0.380900      	                               
 860                            	0.379600      	                               
 502                            	0.379500      	                               
 1893                           	0.379100      	                               
 620                            	0.378000      	                               
 610                            	0.378000      	                               
 844                            	0.374900      	                               
 1539                           	0.373200      	                               
 1774                           	0.369400      	                               
 18                             	0.367400      	                               
 1619                           	0.367200      	                               
 1620                           	0.367200      	                               
 769                            	0.365800      	                               
 1781                           	0.365700      	                               
 1138                           	0.362500      	                               
 1628                           	0.362100      	                               
 550                            	0.360900      	                               
 689                            	0.360500      	                               
 789                            	0.352100      	                               
 40                             	0.351200      	                               
 770                            	0.343600      	                               
 511                            	0.335900      	                               
 586                            	0.333500      	                               
 1297                           	0.333500      	                               
 1299                           	0.333500      	                               
 135                            	0.326200      	                               
 1942                           	0.322200      	                               
 942                            	0.317700      	                               
 1987                           	0.311300      	                               
 1982                           	0.311300      	                               
 1983                           	0.311300      	                               
 1995                           	0.311300      	                               
 1992                           	0.311300      	                               
 2001                           	0.311300      	                               
 1988                           	0.311300      	                               
 1978                           	0.311300      	                               
 672                            	0.311300      	                               
 1796                           	0.310100      	                               
 1932                           	0.309500      	                               
 564                            	0.308000      	                               
 926                            	0.307200      	                               
 797                            	0.305700      	                               
 1512                           	0.299500      	                               
 1906                           	0.298000      	                               
 272                            	0.295300      	                               
 183                            	0.289300      	                               
 566                            	0.289000      	                               
 1163                           	0.288100      	                               
 1795                           	0.287900      	                               
 1790                           	0.287900      	                               
 1789                           	0.287900      	                               
 507                            	0.284600      	                               
 357                            	0.277700      	                               
 323                            	0.275000      	                               
 22                             	0.266900      	                               
 1045                           	0.266800      	                               
 1186                           	0.266400      	                               
 1665                           	0.264400      	                               
 226                            	0.261100      	                               
 703                            	0.257300      	                               
 1503                           	0.240400      	                               
 192                            	0.239300      	                               
 262                            	0.228500      	                               
 1550                           	0.227000      	                               
 878                            	0.222300      	                               
 1328                           	0.222300      	                               
 16                             	0.222300      	                               
 370                            	0.213200      	                               
 1117                           	0.200100      	                               
 510                            	0.198800      	                               
 1110                           	0.196900      	                               
 1156                           	0.195100      	                               
 283                            	0.184300      	                               
 1180                           	0.178600      	                               
 715                            	0.177100      	                               
 998                            	0.177000      	                               
 452                            	0.173200      	                               
 1585                           	0.172000      	                               
 19                             	0.170300      	                               
 232                            	0.165300      	                               
 729                            	0.160700      	                               
 717                            	0.160700      	                               
 1955                           	0.160700      	                               
 1047                           	0.156200      	                               
 1036                           	0.156200      	                               
 607                            	0.151600      	                               
 73                             	0.149800      	                               
 284                            	0.145500      	                               
 1039                           	0.134900      	                               
 7                              	0.122600      	                               
 611                            	0.119000      	                               
 1914                           	0.118100      	                               
 834                            	0.116000      	                               
 172                            	0.114400      	                               
 1827                           	0.111200      	                               
 774                            	0.111200      	                               
 343                            	0.105000      	                               
 720                            	0.102500      	                               
 723                            	0.095600      	                               
 832                            	0.092400      	                               
 801                            	0.091400      	                               
 1376                           	0.085800      	                               
 907                            	0.081100      	                               
 166                            	0.079800      	                               
 697                            	0.076800      	                               
 695                            	0.076800      	                               
 872                            	0.070900      	                               
 909                            	0.068000      	                               
 353                            	0.066300      	                               
 1953                           	0.064000      	                               
 688                            	0.059700      	                               
 374                            	0.055200      	                               
 372                            	0.050800      	                               
 1198                           	0.045500      	                               
 659                            	0.044500      	                               
 821                            	0.043300      	                               
 1568                           	0.042300      	                               
 447                            	0.040600      	                               
 1202                           	0.038400      	                               
 338                            	0.038400      	                               
 346                            	0.035300      	                               
 1201                           	0.034600      	                               
 830                            	0.034300      	                               
 919                            	0.033600      	                               
 352                            	0.028600      	                               
 364                            	0.027700      	                               
 576                            	0.027300      	                               
 542                            	0.027300      	                               
 745                            	0.025700      	                               
 1976                           	0.022300      	                               
 700                            	0.022300      	                               
 1190                           	0.022300      	                               
 1505                           	0.022300      	                               
 633                            	0.022300      	                               
 72                             	0.022300      	                               
 113                            	0.021800      	                               
 1683                           	0.020100      	                               
 1659                           	0.020100      	                               
 1669                           	0.020100      	                               
 1528                           	0.020000      	                               
 1681                           	0.018600      	                               
 340                            	0.016100      	                               
 1670                           	0.009700      	                               
 1652                           	0.009700      	                               
 754                            	0.009500      	                               
 764                            	0.009500      	                               
 758                            	0.009500      	                               
 1901                           	0.006900      	                               
 1685                           	0.004400      	                               
 1680                           	0.004400      	                               
 1661                           	0.004400      	                               
 1668                           	0.004400      	                               
 1649                           	0.004400      	                               
 1524                           	0.002900      	                               
 1882                           	0.001500      	                               
 687                            	0.001500      	                               
 691                            	0.001500      	                               
 692                            	0.001500      	                               
 1879                           	0.001500      	                               
 1219                           	0.001000      	                               
 3003                           	-63.000000    	                               
 3004                           	-1388.000000  	                               
 3005                           	-10.779700    	                               
 3006                           	-926.000100   	                               
 3007                           	-26.102700    	                               

[EMITTERS]
;;Junction                       	Coefficient   

[LEAKAGE]
;;Pipe                           	Leak Area     	Leak Expansion

[STATUS]
;;ID                             	Status/Setting
 prv                            	open

[PATTERNS]
;;ID                             	Multipliers 

[CURVES]
;;ID                             	X-Value     	Y-Value     

[CONTROLS]

[RULES]

[QUALITY]
;;ID                             	InitQual      

[SOURCES]
;;ID                             	Type     	Quality       	Pattern                        

[MIXING]
;;ID                             	Model   

[REACTIONS]
 ORDER  BULK            1.00
 ORDER  WALL            1
 ORDER  TANK            1.00
 GLOBAL BULK            0.000000
 GLOBAL WALL            0.000000

[REACTIONS]
;Type     	Pipe/Tank                      	Coefficient 

[ENERGY]
 GLOBAL EFFIC        75.0000
 DEMAND CHARGE       0.0000

[TIMES]
 DURATION            0:00:00
 HYDRAULIC TIMESTEP  1:00:00
 QUALITY TIMESTEP    1:00:00
 REPORT TIMESTEP     1:00:00
 REPORT START        0:00:00
 PATTERN TIMESTEP    1:00:00
 PATTERN START       0:00:00
 RULE TIMESTEP       0:06:00
 START CLOCKTIME     0:00:00
 STATISTIC           NONE

[OPTIONS]
 UNITS               LPS
 PRESSURE            METERS
 HEADLOSS            D-W
 UNBALANCED          STOP
 QUALITY             NONE
 DEMAND MULTIPLIER   1.0000
 EMITTER EXPONENT    0.5000
 BACKFLOW ALLOWED    YES
 VISCOSITY           1.000000
 DIFFUSIVITY         1.000000
 SPECIFIC GRAVITY    1.000000
 TRIALS              40
 ACCURACY            0.10000000
 TOLERANCE           0.01000000
 CHECKFREQ           2
 MAXCHECK            10
 DAMPLIMIT           0.00000000

[REPORT]
 PAGESIZE            0
 STATUS              NO
 SUMMARY             NO
 ENERGY              NO
 MESSAGES            YES
 NODES               NONE
 LINKS               NONE
 Elevation           NO
 Demand              PRECISION 2
 Head                PRECISION 2
 Pressure            PRECISION 2
 Quality             NO
 Length              NO
 Diameter            NO
 Flow                PRECISION 2
 Velocity            PRECISION 2
 Headloss            PRECISION 2
 Quality             NO
 State               NO
 Setting             NO
 Reaction            NO

[TAGS]
;;Object  	ID                             	Tag

[COORDINATES]
;;ID                             	X-Coord       	Y-Coord       
 1107                           	-11872.280000 	18258.680000  
 677                            	-34775.160000 	-37362.000000 
 1438                           	-79074.090000 	-58543.390000 
 1486                           	-76360.000000 	-59990.000000 
 1623                           	-69635.490000 	-56621.850000 
 1564                           	-72800.000000 	-59760.000000 
 1626                           	-69720.000000 	-59190.000000 
 1497                           	-75874.000000 	-56038.980000 
 1994                           	-103700.840000	-35029.720000 
 1566                           	-72780.000000 	-17600.000000 
 1877                           	-96465.860000 	-30438.290000 
 1909                           	-64627.930000 	-55755.160000 
 102                            	-63680.000000 	-11810.000000 
 1837                           	-95640.000000 	-48350.000000 
 1961                           	-30237.990000 	-27238.200000 
 2038                           	-97560.000000 	-38070.000000 
 409                            	-49990.440000 	-53443.980000 
 1880                           	-96430.000000 	-45580.000000 
 1239                           	6493.440000   	2397.380000   
 1314                           	-86030.800000 	-40595.080000 
 293                            	-55580.000000 	-7560.000000  
 1082                           	-13300.420000 	-19546.640000 
 2044                           	-98413.740000 	-26959.930000 
 1150                           	-10177.030000 	5643.840000   
 743                            	-35470.000000 	-820.000000   
 1595                           	-72256.510000 	-43099.500000 
 2008                           	-108153.130000	-24177.250000 
 1472                           	-77265.340000 	-35029.720000 
 1998                           	-100200.000000	-45860.000000 
 638                            	4746.780000   	4072.920000   
 522                            	-36359.150000 	17600.340000  
 1254                           	-87690.000000 	-42280.000000 
 1873                           	-93683.180000 	-49917.080000 
 1170                           	7115.020000   	-3849.860000  
 690                            	-37880.000000 	-10600.000000 
 486                            	-45520.000000 	-21770.000000 
 2031                           	-105092.180000	-21672.840000 
 1594                           	-71978.240000 	-46995.260000 
 156                            	-60035.080000 	6384.560000   
 777                            	-30249.090000 	-21857.820000 
 665                            	-39060.000000 	-37900.000000 
 1310                           	-85700.000000 	-36070.000000 
 619                            	-40360.520000 	-18583.640000 
 378                            	-52494.220000 	-47569.720000 
 1815                           	-93961.450000 	-52143.220000 
 100                            	-62934.520000 	-50334.480000 
 1450                           	-78250.000000 	-17990.000000 
 1370                           	-83665.520000 	-21394.570000 
 528                            	-43980.000000 	-20830.000000 
 255                            	-56740.000000 	-12670.000000 
 1711                           	-94657.120000 	-21672.840000 
 1454                           	-78239.280000 	-41151.620000 
 1259                           	-87422.140000 	-25707.730000 
 1871                           	-92930.760000 	2092.740000   
 1846                           	-95250.000000 	-45100.000000 
 2000                           	-108014.000000	-21116.300000 
 1132                           	4406.420000   	-14716.130000 
 1745                           	-89509.150000 	-40595.080000 
 1945                           	-41805.010000 	-44391.850000 
 1952                           	-35449.250000 	11846.920000  
 2045                           	-96830.000000 	-28220.000000 
 2032                           	-103561.700000	-23759.850000 
 1735                           	-91410.000000 	-43380.000000 
 1437                           	-79692.260000 	-19316.300000 
 466                            	-43734.000000 	18676.080000  
 1142                           	-10780.000000 	-8070.000000  
 1389                           	-82622.530000 	-19499.440000 
 742                            	-35660.000000 	-46520.000000 
 1148                           	-6306.910000  	15475.990000  
 110                            	-63180.000000 	-19780.000000 
 1384                           	-81021.970000 	-41012.490000 
 936                            	-21004.370000 	-17813.250000 
 1582                           	-72305.560000 	-23833.790000 
 1515                           	-74621.790000 	-42821.230000 
 570                            	-42864.300000 	6550.460000   
 138                            	-62000.000000 	-29080.000000 
 1865                           	-96465.860000 	-35307.990000 
 437                            	-48040.000000 	-20380.000000 
 1853                           	-95070.000000 	-43000.000000 
 2033                           	-100083.350000	-25290.320000 
 1465                           	-77350.000000 	-28390.000000 
 1869                           	-93265.770000 	-42682.100000 
 815                            	-27195.410000 	9134.790000   
 1630                           	-70169.500000 	-46160.450000 
 1820                           	-91996.230000 	4071.730000   
 1599                           	-70726.040000 	-2611.450000  
 1440                           	-76847.940000 	171.230000    
 2018                           	-98720.000000 	-43710.000000 
 1801                           	-88250.000000 	-46410.000000 
 1836                           	-96883.260000 	-41569.020000 
 1844                           	-95491.920000 	-41151.620000 
 8                              	-67055.500000 	-25176.820000 
 651                            	-38723.430000 	-34954.520000 
 851                            	-28226.810000 	-19065.140000 
 753                            	-34690.000000 	-12810.000000 
 2028                           	-105370.450000	-20003.230000 
 1965                           	-33720.000000 	-11030.000000 
 1895                           	-60070.000000 	-8210.000000  
 731                            	-33042.750000 	14894.860000  
 1531                           	-74564.300000 	-17423.830000 
 1224                           	181.470000    	-8664.820000  
 2030                           	-104674.780000	-22785.910000 
 2004                           	-108709.670000	-22785.910000 
 2009                           	-106066.120000	-25846.860000 
 635                            	-39108.630000 	-21087.420000 
 410                            	-49990.000000 	-15430.000000 
 1712                           	-92560.000000 	-21930.000000 
 1369                           	-82320.000000 	-41200.000000 
 1935                           	-43550.000000 	780.000000    
 652                            	-39860.000000 	-8020.000000  
 1398                           	-78239.280000 	-2054.920000  
 1423                           	-79920.000000 	-18170.000000 
 714                            	-34101.060000 	-21568.920000 
 1854                           	-97718.070000 	-9985.560000  
 1872                           	-92655.900000 	9404.020000   
 694                            	-37730.000000 	210.000000    
 710                            	-33715.870000 	-38036.090000 
 979                            	-20110.000000 	7380.000000   
 322                            	-51893.880000 	17338.520000  
 1348                           	-84361.190000 	-40595.080000 
 959                            	-22010.000000 	-9720.000000  
 1262                           	-87561.270000 	-27238.200000 
 1825                           	-93544.040000 	-34612.310000 
 53                             	-65750.000000 	-18030.000000 
 1891                           	-59974.030000 	-17606.980000 
 1435                           	-77961.010000 	-37116.730000 
 744                            	3088.580000   	6603.850000   
 1749                           	-92709.240000 	-12629.110000 
 678                            	-38460.000000 	-7390.000000  
 1418                           	-79630.620000 	-40873.350000 
 1316                           	-84520.030000 	6545.470000   
 121                            	-63183.440000 	-38613.890000 
 2010                           	-99248.540000 	-31412.230000 
 1780                           	-90065.690000 	-32525.300000 
 61                             	-65390.000000 	-23010.000000 
 756                            	-34440.000000 	-2590.000000  
 333                            	-53553.510000 	-39480.580000 
 1439                           	-78100.150000 	-33499.240000 
 1823                           	-94517.980000 	-11098.640000 
 706                            	-36701.140000 	-47666.020000 
 11                             	-67943.350000 	-1080.980000  
 236                            	-58936.230000 	-14615.670000 
 405                            	-50100.250000 	-9107.940000  
 1424                           	-76125.330000 	-3243.110000  
 365                            	-52260.000000 	-40680.000000 
 304                            	-54990.000000 	-23300.000000 
 454                            	-46908.870000 	-44488.140000 
 1131                           	7467.380000   	-24594.650000 
 2011                           	-101196.420000	-27933.870000 
 87                             	-64570.000000 	-20250.000000 
 1403                           	-80710.000000 	-49600.000000 
 1876                           	-99805.080000 	-15411.800000 
 1284                           	-86390.000000 	-45280.000000 
 1011                           	-18790.000000 	-11120.000000 
 967                            	-20737.150000 	-4218.090000  
 1354                           	-82274.170000 	-39203.740000 
 77                             	-66691.150000 	-3307.120000  
 923                            	-24210.000000 	-1020.000000  
 882                            	-26300.000000 	-14110.000000 
 92                             	-64390.000000 	-17780.000000 
 1308                           	-83387.250000 	-34473.180000 
 609                            	-41780.000000 	-4540.000000  
 976                            	-20490.000000 	-10560.000000 
 418                            	-51146.030000 	-46414.130000 
 880                            	-26300.000000 	-15030.000000 
 1636                           	-69350.000000 	-20950.000000 
 1920                           	-50020.000000 	-40680.000000 
 1458                           	-77710.000000 	-21690.000000 
 1252                           	-85195.990000 	-38229.800000 
 893                            	-25870.000000 	3490.000000   
 1493                           	-74621.790000 	-5533.270000  
 794                            	-31019.490000 	-44969.640000 
 1625                           	-69445.680000 	-11668.360000 
 1925                           	-48156.220000 	14789.360000  
 579                            	-42479.100000 	5298.570000   
 1491                           	-76250.000000 	-17600.000000 
 461                            	-46490.000000 	-32850.000000 
 326                            	-54040.000000 	-44870.000000 
 553                            	-43200.000000 	10550.000000  
 10                             	-67160.000000 	-12610.000000 
 1736                           	-91400.000000 	-46420.000000 
 776                            	-32630.000000 	-16190.000000 
 1642                           	-68990.000000 	-12860.000000 
 1273                           	-88396.080000 	-33777.510000 
 1221                           	-11.130000    	-47666.020000 
 282                            	-56827.690000 	-32547.040000 
 191                            	9554.390000   	-24177.250000 
 1548                           	-73310.000000 	-20950.000000 
 1269                           	-87140.020000 	-17790.120000 
 1289                           	-85891.660000 	-21533.700000 
 837                            	-30152.790000 	-14057.580000 
 1459                           	-78378.420000 	-54925.910000 
 65                             	-65290.000000 	-8920.000000  
 1731                           	-89648.290000 	-36977.600000 
 605                            	-44982.880000 	-50362.400000 
 261                            	-56490.000000 	-10320.000000 
 1499                           	-77006.190000 	13771.260000  
 539                            	-44693.980000 	-41021.370000 
 1950                           	-29551.800000 	18298.530000  
 359                            	-52710.000000 	-16910.000000 
 1234                           	-2996.400000  	-15502.070000 
 305                            	-55031.430000 	-8586.370000  
 737                            	-35690.000000 	-11180.000000 
 383                            	-51430.000000 	-40680.000000 
 1258                           	-87550.000000 	-32180.000000 
 581                            	-42480.000000 	9370.000000   
 302                            	-55160.000000 	-35430.000000 
 1817                           	-100361.620000	-7342.010000  
 1078                           	5240.000000   	-970.000000   
 786                            	-30511.810000 	15069.410000  
 1719                           	-91457.030000 	-34751.450000 
 555                            	-324.140000   	-49638.810000 
 1449                           	-74621.790000 	-2889.720000  
 1129                           	-11663.340000 	-10013.010000 
 1121                           	-11952.230000 	-11168.600000 
 928                            	-16881.110000 	21876.160000  
 1349                           	-83108.980000 	-51169.280000 
 1329                           	-83365.610000 	9568.940000   
 1177                           	-8082.460000  	7214.770000   
 1960                           	-35370.000000 	-3550.000000  
 656                            	6493.440000   	-34194.910000 
 655                            	-37664.140000 	-21087.420000 
 1479                           	-74991.630000 	9864.250000   
 292                            	-55590.000000 	-5680.000000  
 1401                           	-80187.160000 	-34055.780000 
 535                            	-43880.000000 	2070.000000   
 842                            	-28020.000000 	-15730.000000 
 1306                           	-85454.550000 	9678.880000   
 1160                           	3849.890000   	-107.040000   
 623                            	-40938.310000 	-26769.080000 
 1357                           	-83010.000000 	-42280.000000 
 704                            	-37340.000000 	-17440.000000 
 1038                           	-18693.180000 	-15887.260000 
 1436                           	-78795.820000 	-46856.120000 
 641                            	-40350.000000 	-37900.000000 
 1406                           	-80670.000000 	-27620.000000 
 1772                           	-86726.470000 	-39064.610000 
 1956                           	-36097.330000 	6080.210000   
 1663                           	-71282.570000 	2814.780000   
 336                            	-53610.000000 	-9810.000000  
 501                            	-44840.000000 	-15930.000000 
 747                            	-1780.000000  	-1650.000000  
 617                            	-41560.000000 	-37900.000000 
 1514                           	-73123.590000 	-12105.380000 
 671                            	-38241.930000 	-47569.720000 
 208                            	-15515.310000 	-15790.970000 
 1765                           	-89826.090000 	-21697.140000 
 1181                           	-2132.880000  	13110.710000  
 187                            	4406.420000   	-33360.110000 
 1615                           	-70310.000000 	-19280.000000 
 136                            	-62000.000000 	-10090.000000 
 1487                           	-75174.770000 	6872.940000   
 868                            	-23442.640000 	17338.520000  
 406                            	-49720.920000 	-5504.380000  
 435                            	-48257.060000 	-47954.920000 
 1788                           	-87004.740000 	-36977.600000 
 925                            	-24160.000000 	3000.000000   
 1094                           	1144.460000   	-7412.930000  
 1141                           	-9740.660000  	9832.980000   
 1236                           	2736.810000   	-2054.920000  
 972                            	-19777.140000 	-6574.480000  
 1412                           	-79352.360000 	-34890.580000 
 211                            	-15707.910000 	-12131.590000 
 682                            	-35545.550000 	-21954.120000 
 1990                           	-101335.560000	-35725.390000 
 1845                           	-97578.930000 	-11655.170000 
 1261                           	-87700.410000 	-23898.980000 
 78                             	-65013.130000 	3083.690000   
 295                            	-55768.400000 	-33317.430000 
 660                            	-38819.730000 	-19546.640000 
 1495                           	-76070.000000 	-21500.000000 
 1812                           	-96048.460000 	-9985.560000  
 1818                           	-92820.810000 	-1920.230000  
 1632                           	-69741.580000 	-25665.200000 
 1926                           	-44707.940000 	24241.450000  
 578                            	-42093.900000 	-18583.640000 
 1260                           	-87143.870000 	-21533.700000 
 433                            	-48370.000000 	-16500.000000 
 1878                           	-96590.000000 	-44140.000000 
 310                            	-58079.580000 	-55466.260000 
 548                            	-42671.700000 	-40539.880000 
 666                            	-39020.000000 	-17450.000000 
 1300                           	-85195.990000 	19510.880000  
 308                            	-51195.690000 	2851.080000   
 1627                           	-69680.000000 	-22340.000000 
 857                            	-23093.540000 	20829.470000  
 436                            	-48180.000000 	-17560.000000 
 377                            	-51960.000000 	-44020.000000 
 1464                           	-77450.000000 	-30080.000000 
 334                            	-53710.000000 	-42950.000000 
 47                             	-65860.000000 	-22190.000000 
 1467                           	-77350.000000 	-26330.000000 
 285                            	-57405.490000 	-34858.220000 
 1948                           	-40264.220000 	-34954.520000 
 445                            	-48257.060000 	-43043.660000 
 1957                           	-35730.000000 	-6340.000000  
 93                             	-64531.630000 	-32547.040000 
 1367                           	-79213.220000 	-3446.260000  
 2037                           	-95679.360000 	5006.260000   
 1834                           	-99109.410000 	-36142.790000 
 1814                           	-92430.970000 	-33081.840000 
 1339                           	-84230.000000 	-2880.000000  
 1165                           	-8960.000000  	-11600.000000 
 1058                           	-17344.990000 	-22339.320000 
 477                            	-44986.210000 	21597.900000  
 1140                           	-7618.770000  	-39865.780000 
 1979                           	-105231.310000	-2472.320000  
 1902                           	-57070.000000 	-44420.000000 
 128                            	-62290.000000 	-15830.000000 
 371                            	-52120.000000 	-9810.000000  
 1408                           	-80743.700000 	-54369.370000 
 1426                           	-79670.000000 	-27500.000000 
 843                            	-26686.020000 	-44969.640000 
 631                            	-30162.720000 	20742.200000  
 275                            	-56140.000000 	-43720.000000 
 1211                           	-4922.390000  	-12805.690000 
 2013                           	-98413.740000 	-28212.140000 
 1046                           	-16635.290000 	-3170.800000  
 68                             	-64369.430000 	-15470.330000 
 381                            	-51440.000000 	-16600.000000 
 1263                           	-88422.010000 	-1368.430000  
 1109                           	-13040.000000 	-8870.000000  
 911                            	-24278.540000 	-18102.150000 
 252                            	-56870.000000 	-23740.000000 
 1695                           	-95352.790000 	-14576.990000 
 1151                           	-4915.570000  	13388.980000  
 1003                           	-17633.890000 	-38324.990000 
 1560                           	-73526.500000 	-18888.970000 
 490                            	-47871.860000 	-50940.200000 
 1402                           	-80743.700000 	-38368.940000 
 819                            	-26933.590000 	15331.230000  
 1770                           	-88299.910000 	-11929.590000 
 1617                           	-70300.000000 	-19790.000000 
 1634                           	-69497.390000 	-19499.440000 
 1739                           	-90790.000000 	-47510.000000 
 1394                           	-79908.890000 	-12350.850000 
 367                            	-52180.000000 	-19000.000000 
 901                            	-25241.530000 	-8087.020000  
 1605                           	-70740.000000 	-26270.000000 
 169                            	-60740.000000 	-27000.000000 
 1829                           	-98413.740000 	-34751.450000 
 1087                           	-13959.290000 	-54230.230000 
 1489                           	-76456.760000 	-16386.030000 
 829                            	-28710.000000 	2900.000000   
 625                            	-38916.030000 	-39769.480000 
 1337                           	-84300.000000 	-35480.000000 
 1973                           	-31420.000000 	-48730.000000 
 719                            	-33234.370000 	-20509.630000 
 500                            	-8950.000000  	-8550.000000  
 1572                           	-72260.000000 	-28350.000000 
 1413                           	-80290.000000 	-25620.000000 
 708                            	-36970.000000 	-11180.000000 
 1547                           	-71694.190000 	-9389.520000  
 662                            	-39360.000000 	-12040.000000 
 746                            	-33715.870000 	-18487.340000 
 951                            	-21333.400000 	13528.110000  
 811                            	-32175.080000 	-12227.890000 
 12                             	-67050.000000 	-26380.000000 
 1200                           	-2707.510000  	-51421.690000 
 1764                           	-92848.370000 	-20420.630000 
 1125                           	-12220.000000 	-5790.000000  
 1927                           	-44960.000000 	4790.000000   
 1077                           	-14263.420000 	-14346.480000 
 1279                           	-85335.130000 	-42682.100000 
 1277                           	-86407.450000 	-7167.910000  
 1351                           	-82691.580000 	-54091.100000 
 1430                           	-80424.830000 	-20598.290000 
 278                            	-53930.360000 	3088.010000   
 1164                           	-2550.290000  	-38647.210000 
 62                             	-67386.820000 	5736.600000   
 122                            	-62415.920000 	-22979.130000 
 1291                           	-85430.700000 	-20048.860000 
 258                            	-56630.000000 	-11190.000000 
 1342                           	-83904.520000 	-17179.650000 
 1692                           	-91996.230000 	-106.150000   
 2021                           	-101057.290000	-34334.050000 
 2020                           	-93865.280000 	5281.120000   
 219                            	-58700.000000 	-13000.000000 
 38                             	-66050.000000 	-20190.000000 
 1969                           	-33138.070000 	-14731.670000 
 767                            	710.000000    	-900.000000   
 1307                           	-86587.330000 	17702.140000  
 299                            	-55220.000000 	-3430.000000  
 1143                           	-10750.000000 	-6290.000000  
 1455                           	-78030.000000 	-50890.000000 
 1887                           	-96558.910000 	3467.040000   
 732                            	-35990.000000 	-13480.000000 
 1924                           	-46500.000000 	-35060.000000 
 759                            	3937.140000   	-8472.220000  
 178                            	-62509.350000 	-36687.900000 
 129                            	-62190.000000 	-11960.000000 
 1005                           	-19559.880000 	-18679.940000 
 1755                           	-92152.700000 	-14716.130000 
 645                            	6910.840000   	-27933.870000 
 1374                           	-79908.890000 	-5811.540000  
 982                            	-19463.580000 	-47280.820000 
 184                            	-60160.000000 	-33760.000000 
 1029                           	-18789.480000 	-21183.720000 
 1842                           	-100083.350000	-12489.980000 
 1828                           	-100500.750000	-10542.100000 
 1618                           	-70290.000000 	-27200.000000 
 196                            	-60101.860000 	-28406.170000 
 1222                           	1484.610000   	-31551.360000 
 327                            	-54000.000000 	-12000.000000 
 376                            	-52590.520000 	-49303.110000 
 1751                           	-89577.460000 	-1535.420000  
 640                            	-40410.000000 	11620.000000  
 216                            	-57471.100000 	-18827.920000 
 1473                           	-79448.080000 	13710.220000  
 802                            	-29028.160000 	12625.740000  
 1069                           	-15770.000000 	-10760.000000 
 1740                           	-92145.890000 	-9731.890000  
 595                            	-42020.000000 	12940.000000  
 1708                           	-92570.000000 	-23190.000000 
 613                            	-30655.390000 	25771.920000  
 785                            	-31384.550000 	3374.730000   
 1194                           	-6900.000000  	-9820.000000  
 155                            	2492.650000   	-11842.700000 
 1699                           	-104674.780000	-25012.060000 
 670                            	-35834.450000 	16084.090000  
 36                             	-66130.000000 	-27390.000000 
 1443                           	-78239.280000 	-31690.500000 
 1100                           	-14627.990000 	8611.150000   
 1068                           	-11759.640000 	-48725.310000 
 1525                           	-74200.000000 	-21150.000000 
 845                            	-25723.030000 	-38036.090000 
 1496                           	-75980.000000 	-11120.000000 
 1364                           	-82744.620000 	-11074.930000 
 669                            	-36604.850000 	-38421.290000 
 188                            	-60872.260000 	-32450.740000 
 915                            	-24228.100000 	-5003.550000  
 1072                           	-15360.000000 	-8100.000000  
 425                            	-49577.640000 	-38229.800000 
 622                            	-40553.110000 	1928.100000   
 457                            	5102.090000   	-36421.060000 
 634                            	-40167.920000 	-45065.940000 
 1425                           	-79670.000000 	-28720.000000 
 627                            	-39301.220000 	-32354.440000 
 150                            	-61360.000000 	-15830.000000 
 431                            	-47919.140000 	-5219.880000  
 70                             	-65120.000000 	-26580.000000 
 35                             	-65995.470000 	-39064.610000 
 1800                           	-88370.000000 	-9550.000000  
 606                            	-41850.000000 	8500.000000   
 1980                           	-100222.480000	-37812.400000 
 588                            	-29264.050000 	23545.770000  
 1537                           	-67247.680000 	-52838.890000 
 1393                           	-78959.700000 	-330.630000   
 1483                           	-76152.270000 	-46160.450000 
 1                              	-67460.000000 	-27940.000000 
 1641                           	-69314.250000 	-18095.350000 
 760                            	-32752.870000 	-11264.900000 
 1355                           	-82317.290000 	-17545.930000 
 644                            	-39782.720000 	-14442.780000 
 1862                           	-94935.380000 	1284.310000   
 683                            	-37375.240000 	-19450.340000 
 1910                           	-51719.330000 	931.060000    
 204                            	-59290.000000 	-27000.000000 
 430                            	-48500.000000 	-35060.000000 
 267                            	-55456.540000 	-20232.000000 
 1311                           	-84514.990000 	-10525.510000 
 1122                           	-11835.230000 	-2647.160000  
 512                            	-44670.000000 	-34400.000000 
 833                            	-29189.800000 	-46317.830000 
 681                            	-38310.000000 	-13280.000000 
 1385                           	-80882.830000 	-32386.170000 
 117                            	-62900.000000 	-33700.000000 
 1371                           	-81706.820000 	-26458.810000 
 1516                           	-74343.530000 	-44769.110000 
 698                            	-35942.490000 	-26264.260000 
 434                            	-50279.340000 	-49592.010000 
 449                            	-49605.250000 	-45162.240000 
 1587                           	-71206.710000 	-16263.940000 
 585                            	-34351.860000 	18647.630000  
 1580                           	-71890.000000 	-21330.000000 
 1533                           	-73940.000000 	-27360.000000 
 51                             	-65790.000000 	-19730.000000 
 515                            	-39838.250000 	25911.060000  
 858                            	-25013.570000 	16378.510000  
 385                            	-51270.000000 	-17740.000000 
 667                            	-38241.930000 	-41599.170000 
 1803                           	-88240.000000 	-20100.000000 
 498                            	-41925.260000 	18815.210000  
 1917                           	-52120.000000 	-8200.000000  
 142                            	-62027.850000 	98.410000     
 949                            	-22540.000000 	-600.000000   
 1388                           	-81096.350000 	-17973.260000 
 1593                           	-72256.510000 	-45186.510000 
 1485                           	-76370.000000 	-53600.000000 
 1356                           	-82256.250000 	-391.680000   
 1885                           	-96668.860000 	-326.040000   
 1771                           	-89400.000000 	-42620.000000 
 1295                           	-85784.390000 	-1425.480000  
 1898                           	-59160.000000 	-3430.000000  
 243                            	-57170.000000 	-28770.000000 
 99                             	-63183.440000 	-32354.440000 
 1243                           	-88642.930000 	16385.480000  
 1383                           	-82274.170000 	-31412.230000 
 344                            	-53170.000000 	-44020.000000 
 321                            	-56346.190000 	-53636.570000 
 1225                           	-4504.240000  	1891.070000   
 54                             	-65109.430000 	-28117.270000 
 245                            	-57120.000000 	-43080.000000 
 1171                           	-8867.930000  	-6399.930000  
 1235                           	2041.140000   	-40873.350000 
 213                            	-59040.000000 	-24990.000000 
 472                            	-46090.000000 	10550.000000  
 1727                           	-91171.650000 	-2689.840000  
 1864                           	-94935.380000 	-1220.110000  
 1962                           	-31308.390000 	-21954.120000 
 1863                           	-94796.250000 	-2889.720000  
 1964                           	-32560.280000 	-18102.150000 
 1860                           	-96326.730000 	-4141.930000  
 1650                           	-68703.780000 	-19011.060000 
 514                            	-45880.290000 	-6120.770000  
 366                            	-54323.910000 	-52384.680000 
 1220                           	93.260000     	-18333.620000 
 1508                           	-74695.930000 	-9246.580000  
 597                            	-602.410000   	-25986.000000 
 940                            	-21293.260000 	-16465.060000 
 793                            	-31270.000000 	100.000000    
 1461                           	-77650.000000 	-19660.000000 
 483                            	-47101.460000 	1157.700000   
 137                            	-62000.000000 	-27000.000000 
 1353                           	-83108.980000 	-44769.110000 
 1184                           	8023.910000   	-29742.620000 
 1193                           	4962.960000   	-26959.930000 
 1312                           	-85014.780000 	16220.560000  
 140                            	-61950.000000 	-1750.000000  
 1944                           	-42382.800000 	-45547.440000 
 1802                           	-88240.000000 	-22330.000000 
 1330                           	-81161.100000 	-36560.190000 
 234                            	-56433.300000 	2904.870000   
 56                             	-66139.790000 	-23894.830000 
 1710                           	-92560.000000 	-24600.000000 
 1375                           	-81578.500000 	-11794.310000 
 1360                           	-82927.760000 	2172.300000   
 75                             	-64064.190000 	-21758.180000 
 1674                           	-68703.780000 	-16019.750000 
 419                            	-50857.140000 	-47858.620000 
 847                            	-27850.000000 	-1730.000000  
 1698                           	-97996.340000 	-25290.320000 
 1700                           	-100918.150000	-26542.530000 
 840                            	-28226.810000 	-4620.250000  
 810                            	-30010.000000 	1700.000000   
 877                            	-21055.130000 	22850.100000  
 1429                           	-81096.350000 	9375.870000   
 1758                           	-90375.520000 	-10098.180000 
 713                            	-33715.870000 	12809.910000  
 251                            	-56982.720000 	-14188.330000 
 1624                           	-69070.060000 	-15104.040000 
 1601                           	-70168.910000 	-16019.750000 
 411                            	-48545.950000 	-52480.980000 
 88                             	-64550.000000 	-42800.000000 
 1480                           	-76520.000000 	-28910.000000 
 44                             	-65890.000000 	-30970.000000 
 194                            	-59640.000000 	-36670.000000 
 335                            	-53360.920000 	-40925.070000 
 1191                           	-7310.000000  	-11070.000000 
 1214                           	6215.170000   	-19446.690000 
 696                            	-4729.790000  	-27443.180000 
 1006                           	-18118.940000 	-6399.930000  
 112                            	-62413.050000 	-35243.420000 
 1934                           	-44405.090000 	-47184.520000 
 1304                           	-85930.000000 	-9550.000000  
 1478                           	-77554.720000 	-11962.440000 
 96                             	-64339.030000 	-864.580000   
 1721                           	-95074.520000 	-15829.200000 
 1153                           	-3863.100000  	-36880.500000 
 180                            	7884.780000   	-21394.570000 
 201                            	-58997.280000 	-18950.010000 
 388                            	-51120.000000 	-35170.000000 
 1055                           	-17010.000000 	-13210.000000 
 1638                           	-69280.000000 	-27670.000000 
 1199                           	3710.750000   	-49917.080000 
 485                            	-45670.000000 	12490.000000  
 648                            	-40360.520000 	-36495.310000 
 896                            	-23508.150000 	-48532.710000 
 1936                           	-45368.080000 	-46317.830000 
 1103                           	-8774.360000  	-44295.550000 
 1970                           	-32590.000000 	-46360.000000 
 463                            	-46042.170000 	-23109.710000 
 233                            	-57309.190000 	-31487.740000 
 2014                           	-99160.000000 	-42450.000000 
 1611                           	-70450.000000 	-24440.000000 
 712                            	-36680.000000 	-13400.000000 
 1940                           	-42190.200000 	3854.080000   
 1386                           	-79448.080000 	2965.920000   
 499                            	-42342.660000 	20902.230000  
 1677                           	-67860.000000 	-26380.000000 
 1004                           	-21678.460000 	-25998.690000 
 1716                           	-91735.300000 	-15968.330000 
 230                            	-58946.270000 	-32835.930000 
 740                            	-781.520000   	-14153.880000 
 1063                           	-15033.810000 	-19835.530000 
 1428                           	-77697.660000 	-7531.310000  
 1204                           	2492.650000   	-28406.170000 
 28                             	-66490.000000 	-32380.000000 
 1616                           	-70310.000000 	-21330.000000 
 441                            	-47770.000000 	-38990.000000 
 1975                           	-103422.570000	-44629.980000 
 1743                           	-90560.000000 	-8270.000000  
 557                            	-43030.000000 	-10790.000000 
 1365                           	-81951.010000 	-9731.890000  
 1835                           	-103700.840000	-7342.010000  
 836                            	-25626.730000 	-30332.150000 
 397                            	-51120.000000 	-33210.000000 
 1756                           	-91596.160000 	-13463.920000 
 491                            	-45656.980000 	-48532.710000 
 1773                           	-80326.300000 	22293.570000  
 1521                           	-74410.000000 	-30220.000000 
 1750                           	-88674.350000 	-35586.250000 
 1167                           	8944.700000   	-8279.620000  
 1124                           	-6752.070000  	-48436.410000 
 1989                           	-101561.370000	-381.010000   
 800                            	-28804.610000 	-39384.280000 
 1831                           	-98552.870000 	-14159.590000 
 1985                           	-106205.250000	-4698.460000  
 1833                           	-93480.480000 	7425.030000   
 1123                           	-11374.440000 	-15020.570000 
 1939                           	-42864.300000 	-30813.650000 
 179                            	-60430.110000 	-40177.680000 
 1417                           	-80080.000000 	-22940.000000 
 247                            	-55456.540000 	-18827.920000 
 177                            	-60968.560000 	-31391.450000 
 1686                           	-66134.610000 	-49917.080000 
 941                            	-20811.770000 	-48725.310000 
 881                            	-26300.820000 	-17716.950000 
 131                            	-60828.690000 	-17606.980000 
 1886                           	-105509.580000	-8594.220000  
 2017                           	-98552.870000 	-51586.690000 
 1672                           	-68094.700000 	-29658.060000 
 206                            	-57402.200000 	-5267.300000  
 910                            	-24952.630000 	-16079.860000 
 772                            	-32870.000000 	-48250.000000 
 503                            	-44405.090000 	-45258.540000 
 109                            	-63210.000000 	-9000.000000  
 63                             	-64146.430000 	-29754.360000 
 908                            	-24182.240000 	-15116.870000 
 879                            	-26370.000000 	5640.000000   
 134                            	-61317.070000 	-18888.970000 
 1702                           	-98552.870000 	-8733.360000  
 1407                           	-79352.360000 	-39621.150000 
 1653                           	-68600.000000 	-32210.000000 
 2025                           	-98098.130000 	-106.150000   
 181                            	-59058.320000 	5041.520000   
 920                            	-25145.230000 	-26576.480000 
 329                            	-52638.590000 	-5115.870000  
 341                            	-52494.220000 	-41791.770000 
 1466                           	-77350.000000 	-27220.000000 
 1245                           	-87628.400000 	-9487.700000  
 1664                           	-68360.000000 	-30970.000000 
 459                            	-45960.150000 	-33777.510000 
 59                             	-65205.730000 	-29080.260000 
 1606                           	-70447.770000 	-37673.270000 
 917                            	-23219.250000 	-15887.260000 
 924                            	-22256.260000 	-46703.030000 
 1482                           	-76847.940000 	-44629.980000 
 1474                           	-76430.540000 	-37673.270000 
 256                            	-56923.990000 	-39769.480000 
 1822                           	-99944.220000 	-6228.940000  
 444                            	-47871.860000 	-26094.990000 
 1718                           	-92710.870000 	14461.450000  
 487                            	-47486.660000 	3083.690000   
 1021                           	-17855.050000 	-50891.010000 
 654                            	-39108.630000 	10402.430000  
 185                            	-60120.000000 	-5380.000000  
 5399                           	-89926.550000 	-44769.110000 
 1819                           	-91178.760000 	-41986.430000 
 1794                           	-88600.000000 	-45310.000000 
 1332                           	-84639.460000 	-44629.980000 
 736                            	-30634.290000 	-24169.000000 
 943                            	-22831.720000 	-5178.100000  
 1527                           	-74150.000000 	-25420.000000 
 1415                           	-79491.490000 	-32664.440000 
 460                            	-46812.570000 	-48917.910000 
 1352                           	-82927.760000 	4614.190000   
 2034                           	-102726.900000	-16385.740000 
 543                            	-43345.790000 	-41695.470000 
 1559                           	-73552.410000 	-3100.170000  
 83                             	-63881.050000 	-26703.000000 
 973                            	-20680.000000 	-12940.000000 
 1916                           	-53014.660000 	-21208.760000 
 154                            	-60872.260000 	-3272.060000  
 1188                           	8858.720000   	310.370000    
 1113                           	7500.220000   	-10205.610000 
 494                            	-47197.760000 	9054.240000   
 1392                           	-79509.120000 	4980.470000   
 1237                           	4996.430000   	-6835.130000  
 709                            	-36960.000000 	-46620.000000 
 1589                           	-71320.000000 	-28650.000000 
 224                            	-58320.000000 	-38810.000000 
 1104                           	-13450.000000 	-11060.000000 
 263                            	-56380.000000 	-20770.000000 
 1691                           	-67500.000000 	-21500.000000 
 1717                           	-92410.000000 	-8770.000000  
 1509                           	-75100.000000 	-27570.000000 
 735                            	-2496.940000  	2414.710000   
 1395                           	-79753.310000 	6995.030000   
 1643                           	-73230.450000 	1562.570000   
 1507                           	-74838.870000 	-11390.680000 
 1933                           	-43272.450000 	-4650.900000  
 1518                           	-74550.000000 	-26480.000000 
 104                            	-62894.540000 	-3560.960000  
 1274                           	-85613.390000 	-47551.790000 
 225                            	-58260.000000 	-31750.000000 
 1707                           	-93822.310000 	-12211.710000 
 523                            	-39559.980000 	18815.210000  
 1197                           	-1455.620000  	-21376.320000 
 1007                           	-19166.230000 	-3868.990000  
 2039                           	-103283.440000	-9707.300000  
 1629                           	-69660.000000 	-28150.000000 
 467                            	-46400.000000 	-38990.000000 
 504                            	-44886.580000 	-27154.280000 
 205                            	-59290.000000 	-2460.000000  
 1275                           	-87978.680000 	-48108.330000 
 1159                           	-5638.800000  	2589.260000   
 574                            	-37194.700000 	22850.100000  
 97                             	-64010.000000 	-40930.000000 
 1334                           	-84500.320000 	-29603.480000 
 508                            	-44693.980000 	-25131.990000 
 1073                           	-16198.920000 	2501.990000   
 1411                           	-78239.280000 	-38786.340000 
 495                            	-45240.000000 	3490.000000   
 291                            	-54936.600000 	-1805.990000  
 590                            	-42479.100000 	-47088.220000 
 1753                           	-92848.370000 	-18611.880000 
 464                            	-48160.760000 	-45547.440000 
 1336                           	-84245.170000 	12262.570000  
 227                            	-58100.000000 	-40930.000000 
 1488                           	-76340.000000 	-19720.000000 
 1504                           	-75550.000000 	-22870.000000 
 1399                           	-79081.790000 	1195.550000   
 5                              	-67525.950000 	-5255.000000  
 1586                           	-69693.030000 	-8388.950000  
 1293                           	-85474.260000 	-22925.040000 
 1340                           	-83665.520000 	-46438.720000 
 484                            	-46619.970000 	-45836.330000 
 600                            	-42864.300000 	-51325.390000 
 628                            	-38627.130000 	-25902.390000 
 42                             	-65920.000000 	-26460.000000 
 814                            	-26204.530000 	-40250.980000 
 1115                           	-9833.650000  	-34569.320000 
 424                            	-48680.000000 	-38990.000000 
 1963                           	-32078.780000 	11558.020000  
 1662                           	-68380.000000 	-21430.000000 
 1414                           	-78126.480000 	-6244.850000  
 1575                           	-72117.380000 	-3724.530000  
 1322                           	-84392.900000 	-4848.120000  
 818                            	-29960.200000 	-48051.220000 
 25                             	-66560.000000 	-28320.000000 
 496                            	-18870.000000 	3220.000000   
 1302                           	-85454.550000 	-4503.910000  
 674                            	-34582.560000 	14254.400000  
 1520                           	-73409.470000 	-9246.580000  
 1421                           	-79960.000000 	-24040.000000 
 1410                           	-80390.000000 	-29770.000000 
 158                            	-60970.000000 	-12620.000000 
 593                            	-40264.220000 	-24169.000000 
 1456                           	-76152.270000 	-6785.480000  
 1635                           	-69360.000000 	-23170.000000 
 1639                           	-68886.920000 	-24200.070000 
 209                            	-58919.490000 	-8776.030000  
 1463                           	-77490.000000 	-22750.000000 
 954                            	-21784.440000 	-11810.900000 
 1335                           	-81439.370000 	-34612.310000 
 1420                           	-79213.220000 	-30994.830000 
 903                            	-25410.000000 	-960.000000   
 375                            	-51960.000000 	-42950.000000 
 1517                           	-74343.530000 	-46716.990000 
 1404                           	-79769.760000 	-48804.000000 
 217                            	-57776.330000 	-17301.740000 
 755                            	-33915.490000 	2851.080000   
 349                            	-52686.820000 	-29658.060000 
 1541                           	-73570.000000 	-28800.000000 
 212                            	-57639.270000 	-6594.930000  
 1179                           	-4055.700000  	-16368.760000 
 1720                           	-92350.000000 	-5410.000000  
 1723                           	-91831.310000 	-4064.140000  
 1315                           	-85509.530000 	443.570000    
 869                            	-26770.000000 	-46850.000000 
 395                            	-52360.320000 	-37395.000000 
 160                            	-60930.000000 	-22910.000000 
 1345                           	-83477.190000 	-18217.450000 
 1579                           	-71990.000000 	-19210.000000 
 551                            	-2514.910000  	-48147.520000 
 1607                           	-70640.000000 	-23270.000000 
 1470                           	-76840.030000 	-8246.010000  
 309                            	-54780.000000 	-10030.000000 
 513                            	-47871.860000 	7320.860000   
 475                            	-46060.000000 	-37900.000000 
 1900                           	-57349.000000 	4675.240000   
 244                            	-57160.000000 	-26970.000000 
 944                            	-21293.260000 	-44777.040000 
 1633                           	-69400.000000 	-26650.000000 
 629                            	-40850.000000 	-33530.000000 
 148                            	-61404.050000 	-45325.650000 
 1923                           	-46890.000000 	-36350.000000 
 1571                           	-72320.000000 	-31810.000000 
 1144                           	-10026.250000 	-18487.340000 
 345                            	-54131.310000 	-33991.530000 
 1018                           	-17944.390000 	-3694.450000  
 1086                           	-14480.000000 	-5680.000000  
 426                            	-48510.000000 	-34170.000000 
 509                            	-45753.270000 	7417.160000   
 701                            	-32752.870000 	-24072.700000 
 1195                           	-4155.140000  	6952.950000   
 2003                           	-100050.000000	-42680.000000 
 1139                           	-11278.140000 	-18776.240000 
 241                            	-57310.000000 	-16070.000000 
 1696                           	-92152.700000 	-40038.550000 
 1608                           	-70630.000000 	-30060.000000 
 1013                           	-14263.420000 	-43043.660000 
 167                            	5380.360000   	-22646.770000 
 290                            	-55590.000000 	-42350.000000 
 521                            	-3385.090000  	-41012.490000 
 382                            	-51440.000000 	-41800.000000 
 1247                           	-87994.680000 	-3382.990000  
 373                            	-52120.000000 	-6980.000000  
 934                            	-23180.820000 	-10938.170000 
 1169                           	-2967.690000  	-30577.420000 
 1158                           	-10020.000000 	-13750.000000 
 52                             	-65780.000000 	-42160.000000 
 1954                           	-34133.750000 	-26959.930000 
 103                            	-63761.240000 	-94.190000    
 200                            	-58325.760000 	-21880.280000 
 106                            	-61439.160000 	-24505.310000 
 1621                           	-69828.090000 	-29465.460000 
 1290                           	-86309.070000 	-23898.980000 
 679                            	-36412.250000 	-40828.770000 
 806                            	-30130.000000 	-1940.000000  
 603                            	-41910.000000 	-12310.000000 
 1578                           	-71990.000000 	-31090.000000 
 1500                           	-75880.000000 	-32310.000000 
 1445                           	-79325.980000 	-15714.510000 
 1726                           	-92020.000000 	-7710.000000  
 17                             	-67247.680000 	866.900000    
 1442                           	-77404.480000 	-7063.750000  
 598                            	-463.270000   	-32247.030000 
 1889                           	-61161.160000 	-36013.810000 
 1053                           	-16574.600000 	-17813.250000 
 1350                           	-84222.050000 	-22646.770000 
 1344                           	-83248.110000 	-28768.680000 
 1346                           	-83049.860000 	-27557.660000 
 931                            	-23700.740000 	-7798.130000  
 401                            	-50700.000000 	-23380.000000 
 1492                           	-75541.060000 	-20476.190000 
 399                            	-50990.000000 	-18970.000000 
 3                              	-67299.690000 	-22734.940000 
 950                            	-22490.000000 	-13100.000000 
 1912                           	-54035.010000 	-54214.370000 
 58                             	-65590.370000 	-15104.040000 
 568                            	-41612.410000 	-35821.210000 
 552                            	-42575.400000 	-39673.180000 
 1596                           	-69009.010000 	-14249.380000 
 1008                           	-18031.670000 	-9541.790000  
 152                            	-61378.120000 	8032.830000   
 1363                           	-82570.000000 	-13810.000000 
 1309                           	-85780.000000 	-33990.000000 
 1232                           	-3574.200000  	-10590.810000 
 237                            	-57501.780000 	-30139.560000 
 392                            	-51120.000000 	-34060.000000 
 978                            	-20380.000000 	-14130.000000 
 1511                           	-75050.000000 	-19480.000000 
 379                            	-51810.000000 	-42670.000000 
 1213                           	8110.000000   	3110.000000   
 1462                           	-73508.720000 	-49499.670000 
 716                            	-31629.330000 	-28768.680000 
 883                            	-25337.830000 	-20605.930000 
 300                            	-55180.000000 	-28180.000000 
 1397                           	-81030.000000 	-23970.000000 
 1320                           	-84576.040000 	-8388.850000  
 1588                           	-70865.170000 	-5394.140000  
 1296                           	-85369.650000 	-11197.020000 
 446                            	-47510.000000 	-22630.000000 
 2043                           	-102726.900000	-12768.250000 
 254                            	-56453.890000 	-8444.120000  
 218                            	-57971.180000 	-9724.340000  
 1763                           	-90436.560000 	-23284.360000 
 561                            	-35246.820000 	21041.360000  
 1281                           	-86620.000000 	-50810.000000 
 2042                           	-103561.700000	-18611.880000 
 287                            	-54512.090000 	669.240000    
 1911                           	-54998.000000 	-40539.880000 
 1319                           	-86169.930000 	-54091.100000 
 1510                           	-75050.000000 	-24320.000000 
 895                            	-25820.000000 	-2890.000000  
 1544                           	-72813.050000 	-35725.390000 
 932                            	-23219.250000 	-14250.180000 
 111                            	-63140.000000 	-31230.000000 
 711                            	-34678.860000 	-25228.290000 
 162                            	-60958.340000 	-7353.570000  
 1303                           	-85796.980000 	-3138.800000  
 519                            	-42479.100000 	-26094.990000 
 1048                           	-16897.110000 	-7185.400000  
 417                            	-51820.130000 	-30621.050000 
 1986                           	-101700.000000	-42320.000000 
 221                            	-58255.670000 	-5836.280000  
 1064                           	-17730.190000 	-54695.870000 
 248                            	-54601.880000 	-16813.360000 
 1323                           	-84331.850000 	-9243.510000  
 725                            	-36300.000000 	2280.000000   
 423                            	-50375.640000 	-44584.440000 
 2024                           	-104535.640000	-16524.870000 
 965                            	-21370.000000 	2550.000000   
 82                             	-63472.340000 	-28791.370000 
 824                            	-26974.920000 	-42176.960000 
 1321                           	-84270.800000 	-6313.250000  
 1577                           	-71878.230000 	-19987.820000 
 175                            	-60247.110000 	-6879.420000  
 164                            	-61242.830000 	-5694.040000  
 647                            	-37144.620000 	10705.720000  
 939                            	-22641.450000 	-20220.730000 
 356                            	-52790.000000 	-34980.000000 
 296                            	-7646.090000  	11927.550000  
 149                            	-62509.350000 	7031.960000   
 1271                           	-88697.910000 	2312.620000   
 1257                           	-90072.210000 	-820.780000   
 1915                           	-51525.520000 	15893.390000  
 1928                           	-40812.190000 	22432.700000  
 249                            	-57050.000000 	-26050.000000 
 1112                           	-13300.420000 	-28117.270000 
 105                            	-62782.200000 	-17057.550000 
 702                            	-35352.950000 	-19835.530000 
 538                            	93.260000     	14919.460000  
 1196                           	-7820.640000  	-1163.510000  
 273                            	-56200.000000 	-2120.000000  
 906                            	-23508.150000 	-43428.850000 
 270                            	-54113.500000 	4736.290000   
 1748                           	-91006.730000 	16880.220000  
 107                            	-62782.200000 	-18217.450000 
 215                            	-58940.000000 	-24050.000000 
 286                            	-55837.490000 	-3702.600000  
 1209                           	3455.650000   	-17331.750000 
 558                            	-43020.000000 	-12830.000000 
 1390                           	-82135.040000 	-15133.530000 
 554                            	-44790.280000 	8380.150000   
 492                            	-45849.570000 	-51614.290000 
 1859                           	-96465.860000 	-22785.910000 
 927                            	-19385.520000 	19093.480000  
 1433                           	-76517.810000 	4797.330000   
 871                            	-26710.000000 	-11730.000000 
 1905                           	-56210.000000 	-30300.000000 
 873                            	-24856.340000 	-41213.970000 
 257                            	-57117.710000 	-8823.450000  
 363                            	-51108.120000 	-2054.920000  
 1907                           	-55590.000000 	-4350.000000  
 1892                           	-60721.270000 	-10198.490000 
 1847                           	-107457.460000	-19168.420000 
 1343                           	-84020.000000 	-14040.000000 
 1157                           	-10020.000000 	-11950.000000 
 751                            	-10892.940000 	-28598.770000 
 1687                           	-67421.790000 	-14615.670000 
 1154                           	-8485.460000  	-23494.910000 
 1694                           	-95770.190000 	-17498.810000 
 1535                           	-73860.000000 	-34050.000000 
 724                            	-36320.000000 	-1410.000000  
 408                            	-50020.000000 	-39510.000000 
 159                            	-60104.870000 	-11146.790000 
 1249                           	-87268.630000 	8579.440000   
 462                            	-46427.370000 	-26287.580000 
 718                            	-34775.160000 	-18872.540000 
 1173                           	-6463.180000  	-22050.420000 
 992                            	-19510.000000 	-13510.000000 
 429                            	-48881.970000 	-36281.920000 
 1558                           	-72534.780000 	-6646.340000  
 1583                           	-71650.000000 	-33510.000000 
 1832                           	-98274.610000 	-18333.620000 
 602                            	-41910.000000 	-10240.000000 
 387                            	-51120.000000 	-36370.000000 
 781                            	-32450.000000 	-870.000000   
 1523                           	-72256.510000 	-39621.150000 
 1786                           	-88849.340000 	-10586.550000 
 862                            	-29478.700000 	-13190.890000 
 240                            	-57340.000000 	530.000000    
 1172                           	3015.080000   	-35307.990000 
 707                            	-37010.000000 	990.000000    
 912                            	-23989.640000 	-20509.630000 
 1804                           	-90621.930000 	7589.940000   
 1734                           	-90841.820000 	-1480.450000  
 534                            	-45368.080000 	-40058.380000 
 530                            	-43920.000000 	-38760.000000 
 101                            	-63568.640000 	-2020.170000  
 1471                           	-77190.000000 	-23700.000000 
 1543                           	-73123.590000 	-7531.310000  
 1513                           	-74625.350000 	-20048.860000 
 608                            	-40360.520000 	-41213.970000 
 1475                           	-76920.000000 	-24350.000000 
 1565                           	-72780.000000 	-16800.000000 
 1921                           	-49894.140000 	-42465.860000 
 1538                           	-74381.160000 	-23650.640000 
 1116                           	-6752.070000  	-36399.010000 
 37                             	-65160.670000 	-46856.120000 
 1741                           	-90640.000000 	-5920.000000  
 1744                           	-89742.380000 	-3514.420000  
 81                             	-65590.920000 	1542.900000   
 1501                           	-75870.000000 	-19050.000000 
 792                            	-4776.430000  	10606.300000  
 577                            	-42864.300000 	-43525.150000 
 1532                           	-73404.410000 	8704.350000   
 1333                           	-84025.280000 	1652.960000   
 1227                           	-5110.000000  	-10070.000000 
 95                             	-63953.830000 	-3560.960000  
 1747                           	-89787.420000 	-49221.400000 
 1754                           	-88813.480000 	-50751.880000 
 450                            	-45753.270000 	-28695.070000 
 1490                           	-74065.260000 	-39760.280000 
 1972                           	-31740.000000 	-7150.000000  
 348                            	-52590.520000 	-27732.070000 
 422                            	855.570000    	-3849.860000  
 2047                           	-96883.260000 	-50473.610000 
 1746                           	-89370.020000 	-39064.610000 
 250                            	-12533.420000 	7214.770000   
 391                            	-51338.630000 	-31584.040000 
 1996                           	-98867.740000 	8689.390000   
 197                            	-59607.750000 	279.840000    
 210                            	-56534.350000 	-663.570000   
 1701                           	-94282.540000 	-26703.000000 
 1715                           	-91962.740000 	-26580.910000 
 1598                           	-71060.000000 	-25540.000000 
 1590                           	-72610.790000 	-24871.590000 
 1913                           	-54035.710000 	-6879.420000  
 559                            	-42987.960000 	-11763.190000 
 657                            	-38241.930000 	6357.860000   
 1703                           	-90347.070000 	4016.760000   
 1223                           	-4416.970000  	843.790000    
 1637                           	-69334.690000 	-3028.850000  
 855                            	-26782.320000 	-21857.820000 
 1706                           	-89357.570000 	5391.060000   
 1022                           	-18260.000000 	-660.000000   
 517                            	-6752.070000  	-14539.080000 
 1775                           	-89120.000000 	-22940.000000 
 1918                           	-51500.000000 	-25700.000000 
 1545                           	-74686.400000 	-15897.660000 
 1875                           	-93265.770000 	-46577.850000 
 1861                           	-94790.000000 	-47440.000000 
 820                            	-30826.890000 	-12805.690000 
 1931                           	-41901.300000 	-27346.880000 
 721                            	-36400.000000 	1710.000000   
 2023                           	-98270.000000 	-45120.000000 
 144                            	-60035.080000 	-20659.330000 
 685                            	-33855.480000 	-29186.080000 
 1897                           	-57471.100000 	5835.130000   
 1217                           	-5054.700000  	-41986.430000 
 1280                           	-86608.970000 	4676.420000   
 571                            	-42800.000000 	-37900.000000 
 1705                           	-94587.770000 	-25726.250000 
 339                            	-53540.000000 	-7740.000000  
 1830                           	-100779.020000	-4420.200000  
 1255                           	-87750.490000 	-10708.650000 
 1671                           	-67804.220000 	-3585.390000  
 546                            	-5114.990000  	-47954.920000 
 319                            	-54300.000000 	-26980.000000 
 516                            	-44310.000000 	-36360.000000 
 1760                           	-90192.380000 	-11380.170000 
 1592                           	-71004.310000 	-34890.580000 
 1244                           	-89520.860000 	-9365.610000  
 26                             	-66383.980000 	-16263.940000 
 1857                           	-95213.650000 	-37951.540000 
 297                            	-55270.000000 	-12360.000000 
 320                            	-57309.190000 	-50266.100000 
 1387                           	-81157.400000 	-16813.360000 
 456                            	-47212.360000 	-37395.000000 
 404                            	3070.450000   	-24265.300000 
 173                            	-59716.670000 	-30139.560000 
 1709                           	-96605.000000 	-20559.760000 
 1888                           	-62934.520000 	-44351.710000 
 563                            	-1187.840000  	-4654.460000  
 1452                           	-78230.000000 	-15650.000000 
 427                            	-48500.000000 	-32730.000000 
 229                            	-13107.830000 	-16465.060000 
 1347                           	-82622.530000 	7056.080000   
 1848                           	-96187.590000 	-23898.980000 
 1838                           	-106900.920000	-21672.840000 
 892                            	-25145.230000 	-46317.830000 
 76                             	-65160.670000 	-2054.920000  
 1841                           	-100083.350000	-23759.850000 
 676                            	-36412.250000 	14061.800000  
 1809                           	-93404.910000 	-41569.020000 
 5402                           	-93265.770000 	-45047.380000 
 1266                           	-86773.740000 	-9548.750000  
 686                            	-24811.760000 	24380.580000  
 1341                           	-84026.610000 	-15531.370000 
 1359                           	-81951.010000 	-4298.690000  
 1185                           	1625.960000   	-42658.460000 
 1551                           	-72117.380000 	-37395.000000 
 474                            	-46060.000000 	-15850.000000 
 1133                           	-8003.970000  	-54118.070000 
 1850                           	-91169.130000 	-22368.650000 
 1552                           	-70308.630000 	-51586.690000 
 274                            	-56200.000000 	-3150.000000  
 29                             	-67943.350000 	4484.390000   
 636                            	-39204.930000 	-42562.160000 
 439                            	-48010.000000 	-18730.000000 
 1149                           	-11181.840000 	-21376.320000 
 421                            	-54323.910000 	-51036.490000 
 1542                           	-73560.000000 	-22250.000000 
 34                             	-66130.000000 	-31810.000000 
 916                            	-38446.910000 	-60213.000000 
 1095                           	-13406.160000 	494.690000    
 1688                           	-67727.020000 	-19743.630000 
 1679                           	-68032.260000 	-20842.480000 
 1689                           	-67570.000000 	-20400.000000 
 902                            	-23797.040000 	-45643.740000 
 582                            	-41997.600000 	-42754.760000 
 963                            	-21810.000000 	-14090.000000 
 1704                           	-94100.580000 	-16664.000000 
 1268                           	-87320.000000 	-58010.000000 
 1534                           	-73890.000000 	-29610.000000 
 1002                           	-19090.000000 	-12800.000000 
 220                            	-58560.000000 	-11730.000000 
 684                            	-35664.220000 	-27933.870000 
 506                            	-44680.000000 	-32820.000000 
 969                            	-20920.000000 	-200.000000   
 125                            	-62450.000000 	-41950.000000 
 1120                           	4823.830000   	-3446.260000  
 1093                           	-12722.630000 	-14153.880000 
 850                            	-26878.620000 	-12805.690000 
 1644                           	-68260.290000 	-8965.690000  
 779                            	-30826.890000 	-17813.250000 
 1233                           	2597.680000   	-45047.380000 
 828                            	-25973.580000 	11142.090000  
 1301                           	-85430.700000 	-7595.240000  
 799                            	-30700.000000 	-4870.000000  
 89                             	-65021.540000 	-45047.380000 
 331                            	-53938.710000 	-49303.110000 
 1283                           	-85195.990000 	-52421.490000 
 1762                           	-91317.900000 	-19307.550000 
 324                            	-54080.000000 	-25340.000000 
 420                            	-49270.000000 	-31660.000000 
 1419                           	-81706.820000 	-21025.620000 
 1937                           	-47582.960000 	6068.970000   
 573                            	-40071.620000 	5972.670000   
 1427                           	-79670.000000 	-21960.000000 
 1240                           	1206.340000   	-39203.740000 
 749                            	4545.560000   	-38647.210000 
 1373                           	-81021.970000 	-7342.010000  
 1640                           	-70840.430000 	9131.680000   
 21                             	-67804.220000 	-38925.470000 
 393                            	-51049.730000 	-27057.980000 
 1811                           	-101752.960000	-8455.090000  
 1930                           	-44300.000000 	-37900.000000 
 202                            	-59350.000000 	-11210.000000 
 1162                           	-2967.690000  	-43934.310000 
 174                            	-62795.390000 	-47134.390000 
 176                            	-59524.070000 	-31295.150000 
 351                            	-49973.850000 	19258.550000  
 1951                           	-39879.020000 	-50843.900000 
 637                            	-41034.610000 	-17524.350000 
 650                            	-39940.000000 	-15930.000000 
 1292                           	-86290.000000 	-18400.000000 
 527                            	-43990.000000 	3230.000000   
 412                            	-51531.230000 	-49880.900000 
 1759                           	-90072.210000 	18914.190000  
 807                            	-26878.620000 	-34376.720000 
 1971                           	-28900.900000 	-36495.310000 
 587                            	649.800000    	9214.950000   
 27                             	-66445.030000 	-14371.480000 
 123                            	-62520.000000 	-7480.000000  
 118                            	-62820.000000 	-5660.000000  
 1737                           	-91390.000000 	-6760.000000  
 738                            	-35660.000000 	-47580.000000 
 730                            	-33479.120000 	9483.890000   
 1448                           	-78654.460000 	-19133.160000 
 1799                           	-88849.340000 	-14676.710000 
 2015                           	-99526.810000 	-1776.650000  
 1874                           	-96605.000000 	-13463.920000 
 189                            	8023.910000   	-17916.210000 
 127                            	-62350.000000 	-6850.000000  
 119                            	-62820.000000 	-6680.000000  
 1821                           	-95074.520000 	-12907.380000 
 1446                           	-80743.700000 	-43099.500000 
 796                            	-30441.690000 	-42562.160000 
 414                            	-49500.000000 	-28050.000000 
 1032                           	-17537.590000 	-27250.580000 
 279                            	-59312.140000 	20305.830000  
 1278                           	-84698.130000 	-15897.660000 
 1810                           	-96605.000000 	-36699.330000 
 1757                           	-90080.000000 	-6950.000000  
 1546                           	-72813.050000 	-27516.470000 
 49                             	-65830.000000 	-10120.000000 
 788                            	6076.030000   	-2194.050000  
 1536                           	-73810.000000 	-32330.000000 
 1631                           	-69195.560000 	-39899.410000 
 918                            	-18307.990000 	-33124.830000 
 1242                           	-88200.000000 	-13710.000000 
 885                            	-23966.280000 	13498.480000  
 390                            	-51120.000000 	-32310.000000 
 562                            	-43056.900000 	7994.950000   
 416                            	-49480.000000 	-25890.000000 
 9                              	-67240.000000 	-19420.000000 
 277                            	-56090.000000 	-45300.000000 
 1553                           	-73080.000000 	-28120.000000 
 1778                           	-87422.140000 	-19029.290000 
 368                            	-50968.980000 	-3724.530000  
 1331                           	-84270.800000 	-12173.780000 
 835                            	-28500.000000 	-3100.000000  
 1792                           	-89093.530000 	-13944.150000 
 1729                           	-88697.910000 	6600.450000   
 1868                           	-96883.260000 	-18611.880000 
 317                            	-54520.000000 	-36610.000000 
 1135                           	5241.230000   	1145.170000   
 1852                           	-95070.000000 	-44020.000000 
 1867                           	-93404.910000 	-43934.310000 
 536                            	-41507.860000 	24102.310000  
 1782                           	-88910.390000 	-19438.390000 
 4                              	-67360.000000 	-34050.000000 
 1313                           	-85195.990000 	-49082.270000 
 1288                           	-85430.700000 	-19011.060000 
 438                            	-51242.330000 	-51325.390000 
 1230                           	2685.250000   	-5583.240000  
 1724                           	-91556.450000 	6380.560000   
 2041                           	-103422.570000	-4976.730000  
 1067                           	-15130.110000 	-27732.070000 
 1379                           	-82969.850000 	-25429.460000 
 145                            	-60767.640000 	-21636.090000 
 141                            	-63026.390000 	-22246.560000 
 1793                           	-88055.730000 	-7290.010000  
 1713                           	-95213.650000 	-19029.290000 
 1382                           	-81716.450000 	19024.140000  
 537                            	-38446.910000 	21041.360000  
 139                            	-62000.000000 	-30470.000000 
 1808                           	-93265.770000 	-37116.730000 
 1614                           	-68917.290000 	1006.040000   
 2036                           	-97650.000000 	-46350.000000 
 668                            	-38434.530000 	-768.280000   
 1187                           	6215.170000   	-31412.230000 
 863                            	-27060.000000 	-330.000000   
 214                            	-58540.160000 	-10625.230000 
 60                             	-66134.610000 	5458.330000   
 1675                           	-67902.100000 	-28983.960000 
 1768                           	-89430.000000 	-8650.000000  
 1779                           	-88177.820000 	-8449.900000  
 1231                           	1902.010000   	-37395.000000 
 1317                           	-84959.800000 	13911.730000  
 1318                           	-86279.130000 	12592.400000  
 1372                           	-84778.590000 	-28073.010000 
 790                            	-31597.280000 	-52384.680000 
 1840                           	-98970.280000 	-22785.910000 
 1270                           	-89642.950000 	-16813.360000 
 529                            	-43970.000000 	9650.000000   
 900                            	-25799.030000 	-5876.290000  
 80                             	-64047.600000 	-4837.600000  
 1099                           	-13107.830000 	-23880.100000 
 1166                           	-8960.000000  	-13750.000000 
 945                            	-15611.610000 	-34858.220000 
 389                            	-50760.840000 	-28502.470000 
 827                            	-28710.000000 	-14940.000000 
 1849                           	-95352.790000 	-23759.850000 
 768                            	-9391.570000  	58.320000     
 1569                           	-73709.640000 	-24200.070000 
 1409                           	-80743.700000 	-14298.720000 
 2006                           	-99800.000000 	-39760.000000 
 69                             	-65299.800000 	-3724.530000  
 783                            	5241.230000   	-4837.600000  
 1238                           	2685.250000   	-4042.460000  
 260                            	-51976.850000 	6811.890000   
 1071                           	-15033.810000 	-24072.700000 
 615                            	1430.370000   	4596.560000   
 268                            	-7040.970000  	-51036.490000 
 618                            	-10411.450000 	-52577.280000 
 1530                           	-74080.000000 	-30340.000000 
 762                            	-31384.550000 	7214.770000   
 1997                           	-107457.460000	-16664.000000 
 306                            	-64627.930000 	-51517.990000 
 350                            	-53039.990000 	-1568.910000  
 332                            	1762.870000   	-52004.090000 
 1646                           	-68880.000000 	-31500.000000 
 289                            	-10020.000000 	-15450.000000 
 639                            	8270.610000   	-5679.540000  
 1682                           	-67324.310000 	-30524.750000 
 1941                           	-41708.710000 	2794.790000   
 1967                           	-31886.180000 	-20028.130000 
 773                            	-27745.310000 	-28598.770000 
 1250                           	-86895.830000 	-11807.500000 
 235                            	-56057.300000 	-38517.590000 
 440                            	-47634.650000 	-8491.540000  
 298                            	-55094.300000 	-43139.960000 
 170                            	-60680.000000 	-1940.000000  
 653                            	-38723.430000 	12039.520000  
 870                            	-23604.450000 	-30332.150000 
 1766                           	-90619.710000 	-24749.490000 
 624                            	-40745.710000 	-29176.560000 
 1366                           	-83387.250000 	-58265.130000 
 1597                           	-71080.000000 	-30710.000000 
 153                            	-61240.000000 	-42400.000000 
 328                            	-52953.610000 	-26092.530000 
 1894                           	-60012.700000 	-41986.430000 
 1776                           	-89100.000000 	-52480.000000 
 239                            	-56153.590000 	-37265.700000 
 13                             	-67040.000000 	-9170.000000  
 1178                           	-4248.290000  	-19065.140000 
 222                            	-58430.000000 	-3370.000000  
 1248                           	-87445.250000 	-14188.330000 
 1481                           	-74900.060000 	-35864.520000 
 705                            	-37290.000000 	-6860.000000  
 497                            	-39762.830000 	16989.430000  
 493                            	-45280.000000 	13880.000000  
 1338                           	-84637.080000 	-19682.580000 
 894                            	-23508.150000 	-33510.030000 
 864                            	-25626.730000 	-33991.530000 
 1265                           	-86651.640000 	-3993.460000  
 1660                           	-68639.020000 	-5672.400000  
 198                            	-58899.630000 	-42682.100000 
 518                            	-42479.100000 	-23591.210000 
 98                             	-63568.640000 	-34761.920000 
 264                            	-56330.000000 	-41740.000000 
 386                            	-51434.930000 	-38421.290000 
 812                            	-29930.000000 	-10910.000000 
 889                            	-23791.730000 	10618.450000  
 567                            	-43153.190000 	-32643.340000 
 1968                           	-30634.290000 	-41117.670000 
 673                            	-38730.000000 	-15930.000000 
 1226                           	-4155.140000  	-3781.720000  
 1362                           	-82552.440000 	-22646.770000 
 407                            	5444.970000   	5731.120000   
 132                            	-61011.830000 	-19682.580000 
 330                            	-53893.470000 	-5694.040000  
 1807                           	-98831.140000 	-20977.160000 
 1494                           	-76190.000000 	-33700.000000 
 1327                           	-82691.580000 	-56456.380000 
 1378                           	-84778.590000 	-26820.800000 
 1949                           	-40420.000000 	-13240.000000 
 1145                           	-2584.220000  	-3432.630000  
 1657                           	-69056.430000 	-36421.060000 
 303                            	-6559.480000  	-43428.850000 
 1870                           	-98135.470000 	-24038.120000 
 1119                           	-12660.000000 	-6820.000000  
 1391                           	-81995.910000 	-24872.920000 
 147                            	-140.000000   	870.000000    
 775                            	-32640.000000 	-5120.000000  
 1416                           	-73981.230000 	-241.380000   
 1570                           	-71145.660000 	-22307.610000 
 1563                           	-72488.700000 	-22185.510000 
 1784                           	-89276.670000 	-23955.880000 
 1783                           	-89093.530000 	-25176.820000 
 1453                           	-78656.690000 	-44490.840000 
 1562                           	-73091.320000 	-14020.460000 
 1581                           	-70865.170000 	-39899.410000 
 165                            	-60820.000000 	-38810.000000 
 646                            	-40050.000000 	13280.000000  
 1673                           	-68020.000000 	-10420.000000 
 1806                           	-87201.070000 	-6923.720000  
 778                            	510.670000    	-35029.720000 
 826                            	-29960.200000 	-52192.090000 
 822                            	-29863.900000 	-50458.700000 
 1984                           	-104118.240000	-802.710000   
 1805                           	-88230.000000 	-55350.000000 
 90                             	-63857.540000 	-7605.530000  
 1405                           	-78795.820000 	-13185.650000 
 199                            	-58081.570000 	1989.160000   
 1549                           	-73300.000000 	-28900.000000 
 1813                           	-92013.570000 	-53256.300000 
 114                            	-63664.940000 	2120.700000   
 1210                           	-2411.150000  	10606.300000  
 2029                           	-107457.460000	-10681.230000 
 1977                           	-103700.840000	-40873.350000 
 2040                           	-103144.300000	-14716.130000 
 2035                           	-107318.330000	-13881.320000 
 1728                           	-92152.700000 	-11516.040000 
 589                            	-42220.000000 	11030.000000  
 398                            	-51020.000000 	-19860.000000 
 675                            	-37664.140000 	-35821.210000 
 649                            	-38434.530000 	-28020.970000 
 1460                           	-77680.000000 	-29630.000000 
 190                            	-58064.830000 	3649.590000   
 195                            	-59393.640000 	-5883.700000  
 964                            	-20737.150000 	-8232.680000  
 1381                           	-84361.190000 	-25568.590000 
 1506                           	-75430.000000 	-32340.000000 
 1851                           	-93961.450000 	-24455.520000 
 1843                           	-96326.730000 	-25429.460000 
 1839                           	-103144.300000	-21116.300000 
 658                            	-39490.000000 	-9230.000000  
 757                            	-31995.470000 	4683.830000   
 1264                           	-85858.030000 	-12295.870000 
 763                            	-31995.470000 	13323.930000  
 1326                           	-84639.460000 	-55065.040000 
 750                            	-31351.060000 	-35447.120000 
 1215                           	-6249.710000  	-290.770000   
 1256                           	-87873.320000 	10448.490000  
 621                            	-27872.710000 	25911.060000  
 2016                           	-97273.550000 	2092.740000   
 853                            	-27167.520000 	-5198.050000  
 242                            	-54035.010000 	-37554.600000 
 1526                           	-73695.350000 	-8246.010000  
 168                            	-60679.660000 	-37650.900000 
 124                            	-62450.000000 	-40930.000000 
 664                            	-39120.000000 	-9820.000000  
 157                            	-45.870000    	-44351.710000 
 1651                           	-69195.560000 	-34751.450000 
 1014                           	-14456.020000 	-39962.080000 
 207                            	-59317.030000 	-44490.840000 
 748                            	-29681.450000 	-31412.230000 
 1742                           	-90680.750000 	-17240.690000 
 396                            	-50471.940000 	-29561.760000 
 955                            	-22270.000000 	-7300.000000  
 1647                           	-68880.000000 	-33240.000000 
 1929                           	-45271.780000 	-30235.850000 
 32                             	-64604.130000 	-37255.860000 
 1603                           	-70726.040000 	310.370000    
 1899                           	-59110.000000 	-16380.000000 
 413                            	-48257.060000 	-28887.660000 
 852                            	-28419.410000 	-49688.300000 
 1001                           	-17826.490000 	-46028.930000 
 795                            	-31130.000000 	-2940.000000  
 1457                           	-77372.470000 	8887.490000   
 1136                           	-11486.140000 	1280.160000   
 699                            	-37390.000000 	-2960.000000  
 1228                           	11544.780000  	-4523.950000  
 1947                           	-40938.310000 	-43139.960000 
 766                            	-8774.360000  	-20317.030000 
 560                            	-42093.900000 	-15790.970000 
 1981                           	-101752.960000	-40177.680000 
 269                            	-55286.900000 	-31295.150000 
 861                            	-26108.230000 	-50362.400000 
 859                            	-26589.720000 	-48340.120000 
 1769                           	-90436.560000 	-26458.810000 
 415                            	-49480.000000 	-23750.000000 
 575                            	-32742.400000 	22432.700000  
 1609                           	-69612.960000 	-524.440000   
 1108                           	-13130.000000 	-4260.000000  
 816                            	-29730.000000 	-6970.000000  
 476                            	-45542.750000 	-36003.660000 
 2046                           	-100500.750000	-20559.760000 
 874                            	-25048.930000 	-49110.510000 
 1958                           	-35352.950000 	-52192.090000 
 453                            	-47871.860000 	-30621.050000 
 20                             	-66740.000000 	-11170.000000 
 841                            	-28060.000000 	-8270.000000  
 448                            	-47390.360000 	-27539.480000 
 1451                           	-78250.000000 	-20560.000000 
 680                            	-6686.080000  	-2908.980000  
 1096                           	-3893.320000  	-988.960000   
 1938                           	-37057.340000 	19171.270000  
 752                            	-34101.060000 	-14346.480000 
 347                            	-52526.280000 	-23650.640000 
 565                            	-42960.600000 	-33702.630000 
 1645                           	-69334.690000 	-38090.670000 
 1959                           	-35660.000000 	-49300.000000 
 803                            	-29767.600000 	-8279.620000  
 2026                           	-105231.310000	-12350.850000 
 23                             	-66445.030000 	8765.400000   
 193                            	-56921.670000 	7544.450000   
 860                            	-27071.220000 	-6738.840000  
 502                            	-7733.370000  	3898.370000   
 1893                           	-60872.260000 	4239.280000   
 620                            	-24394.350000 	26050.190000  
 610                            	-35385.950000 	26467.590000  
 844                            	-27970.000000 	-11740.000000 
 1539                           	-73600.000000 	-29710.000000 
 1774                           	-74065.260000 	21458.760000  
 18                             	-66940.000000 	-33030.000000 
 1619                           	-68499.890000 	-2054.920000  
 1620                           	-68639.020000 	-4281.060000  
 769                            	-32849.170000 	-52480.980000 
 1781                           	-89050.000000 	-26200.000000 
 1138                           	371.530000    	12275.910000  
 1628                           	-69057.700000 	-28695.070000 
 550                            	-43430.000000 	-15920.000000 
 689                            	-37086.340000 	-43525.150000 
 789                            	-31630.000000 	-2930.000000  
 40                             	-64724.230000 	4720.780000   
 770                            	-33030.000000 	-49590.000000 
 511                            	-44680.000000 	-31730.000000 
 586                            	-36916.430000 	25076.250000  
 1297                           	-85784.390000 	6270.610000   
 1299                           	-86059.250000 	7754.860000   
 135                            	-1350.000000  	-10880.000000 
 1942                           	-38715.540000 	15942.140000  
 942                            	-36027.050000 	-57970.040000 
 1987                           	-103144.300000	-29742.620000 
 1982                           	-105648.720000	-32247.030000 
 1983                           	-104953.050000	-29325.220000 
 1995                           	-102170.360000	-28907.810000 
 1992                           	-106066.120000	-27377.340000 
 2001                           	-101613.830000	-31690.500000 
 1988                           	-103144.300000	-32107.900000 
 1978                           	-107179.190000	-29881.750000 
 672                            	-24926.290000 	22400.400000  
 1796                           	-87811.540000 	-6069.060000  
 1932                           	-43538.390000 	-27346.880000 
 564                            	-41805.010000 	-34665.620000 
 926                            	-23219.250000 	-52095.790000 
 797                            	-30840.000000 	-8540.000000  
 1512                           	-75119.800000 	18199.550000  
 1906                           	-56731.390000 	-46606.730000 
 272                            	-54709.110000 	-30235.850000 
 183                            	-61264.910000 	-48525.730000 
 566                            	-42575.400000 	-31776.640000 
 1163                           	3340.000000   	1240.000000   
 1795                           	-87750.490000 	-4970.210000  
 1790                           	-88840.000000 	-7060.000000  
 1789                           	-88862.820000 	-5933.190000  
 507                            	-44790.280000 	-23494.910000 
 357                            	-52098.950000 	-24810.540000 
 323                            	-56153.590000 	-55851.460000 
 22                             	-67386.820000 	-35725.390000 
 1045                           	-5115.160000  	-2036.250000  
 1186                           	3432.480000   	9910.620000   
 1665                           	-68248.290000 	16275.530000  
 226                            	-56738.380000 	-4224.160000  
 703                            	-37856.740000 	-24554.200000 
 1503                           	-75810.000000 	-33710.000000 
 192                            	-59441.050000 	-4271.580000  
 262                            	-56470.000000 	-41430.000000 
 1550                           	-74760.930000 	-54508.500000 
 878                            	-26589.720000 	-26383.880000 
 1328                           	-84300.140000 	4291.620000   
 16                             	-67943.350000 	2397.380000   
 370                            	-2132.880000  	8519.280000   
 1117                           	-5638.800000  	-4218.090000  
 510                            	-44501.380000 	-28791.370000 
 1110                           	-9641.050000  	-49399.410000 
 1156                           	1866.740000   	3287.450000   
 283                            	-54035.010000 	-29080.260000 
 1180                           	557.640000    	6691.130000   
 715                            	-3959.400000  	-8664.820000  
 998                            	-1648.210000  	-6642.540000  
 452                            	-46812.570000 	-30235.850000 
 1585                           	-71640.000000 	17910.000000  
 19                             	-67804.220000 	-37395.000000 
 232                            	-58946.270000 	-48629.010000 
 729                            	-35930.750000 	-17139.160000 
 717                            	-36460.000000 	-15770.000000 
 1955                           	-34967.760000 	-14827.970000 
 1047                           	-17071.660000 	-9890.880000  
 1036                           	-16984.380000 	-11199.990000 
 607                            	-43923.590000 	-52866.180000 
 73                             	-65040.000000 	18720.000000  
 284                            	-55820.000000 	-29410.000000 
 1039                           	-17595.300000 	-11985.450000 
 7                              	-63190.860000 	15560.890000  
 611                            	410.000000    	-1940.000000  
 1914                           	-53056.000000 	12554.170000  
 834                            	-36604.850000 	-55658.860000 
 172                            	-60670.000000 	-13800.000000 
 1827                           	-98274.610000 	-5115.870000  
 774                            	-32670.000000 	-2260.000000  
 343                            	-49886.580000 	669.240000    
 720                            	-35160.360000 	-41021.370000 
 723                            	-2322.400000  	5556.570000   
 832                            	-28580.000000 	-9780.000000  
 801                            	-31597.280000 	-10687.100000 
 1376                           	-81300.230000 	-45882.180000 
 907                            	-24860.000000 	-12340.000000 
 166                            	-61988.590000 	-13333.670000 
 697                            	-37567.840000 	-51421.690000 
 695                            	-38530.830000 	-53058.780000 
 872                            	-36893.740000 	-53732.870000 
 909                            	-24952.630000 	-13287.180000 
 353                            	-53334.260000 	15058.590000  
 1953                           	-38279.170000 	7738.410000   
 688                            	-34871.460000 	8669.050000   
 374                            	-51386.380000 	12415.040000  
 372                            	6666.800000   	9309.340000   
 1198                           	-7384.270000  	-6923.570000  
 659                            	-25362.660000 	19433.090000  
 821                            	-44501.380000 	-55947.760000 
 1568                           	-69473.830000 	-53534.560000 
 447                            	-48820.030000 	12845.330000  
 1202                           	-6380.000000  	-8070.000000  
 338                            	-55090.260000 	-13944.150000 
 346                            	-53030.000000 	-15480.000000 
 1201                           	-6410.000000  	-6340.000000  
 830                            	-40842.010000 	-55466.260000 
 919                            	-33716.340000 	-59656.470000 
 352                            	-3381.600000  	-7412.930000  
 364                            	-51525.520000 	-524.440000   
 576                            	-38145.630000 	2217.000000   
 542                            	-43640.000000 	-1080.000000  
 745                            	-34197.360000 	-17042.860000 
 1976                           	-96668.860000 	12207.600000  
 700                            	-37380.000000 	-15020.000000 
 1190                           	-7330.000000  	-5050.000000  
 1505                           	-75480.000000 	-28600.000000 
 633                            	-38916.030000 	-23302.310000 
 72                             	-63942.100000 	12672.420000  
 113                            	-62701.940000 	-768.280000   
 1683                           	-66830.280000 	-45186.510000 
 1659                           	-69473.830000 	-48664.870000 
 1669                           	-68221.620000 	-45743.050000 
 1528                           	-67247.680000 	-51030.150000 
 1681                           	-68154.350000 	-15287.180000 
 340                            	-53991.410000 	-15348.230000 
 1670                           	-68639.020000 	-48108.330000 
 1652                           	-70865.170000 	-48386.600000 
 754                            	-35834.450000 	-4812.850000  
 764                            	-33730.000000 	-7150.000000  
 758                            	-34220.000000 	-6530.000000  
 1901                           	-58368.480000 	-46895.630000 
 1685                           	-65160.670000 	-40038.550000 
 1680                           	-66830.280000 	-43656.040000 
 1661                           	-69056.430000 	-44212.570000 
 1668                           	-67247.680000 	-41012.490000 
 1649                           	-68499.890000 	-42682.100000 
 1524                           	-69891.230000 	-49777.940000 
 1882                           	-107318.330000	-7342.010000  
 687                            	-38056.770000 	-5267.300000  
 691                            	-40167.920000 	-3464.660000  
 692                            	-37740.000000 	-4130.000000  
 1879                           	-95909.320000 	-39342.880000 
 1219                           	7049.970000   	-246.170000   
 301                            	-62099.720000 	-56038.980000 
 533                            	-45656.980000 	-12227.890000 
 525                            	-42960.600000 	-24746.800000 
 318                            	-54516.510000 	-41406.570000 
 146                            	-59974.030000 	-19560.490000 
 79                             	-62415.920000 	-25237.870000 
 311                            	-54700.000000 	-47150.000000 
 741                            	-34351.860000 	4422.010000   
 369                            	-49299.370000 	-2054.920000  
 524                            	-44116.190000 	-43717.750000 
 1714                           	-97578.930000 	-21672.840000 
 15                             	-66830.280000 	11997.640000  
 616                            	-41755.160000 	-2754.290000  
 1567                           	-72770.000000 	-18620.000000 
 1561                           	-73404.410000 	-19743.630000 
 630                            	-31351.060000 	-31968.770000 
 556                            	-43030.000000 	-9820.000000  
 1469                           	-77250.000000 	-41200.000000 
 471                            	-45849.570000 	-43717.750000 
 470                            	-46270.000000 	-19350.000000 
 1785                           	-89459.810000 	-16324.990000 
 1612                           	-69070.060000 	-25054.730000 
 6                              	-66830.280000 	-47690.930000 
 1791                           	-87839.540000 	-28768.680000 
 1358                           	-81951.010000 	-2589.370000  
 380                            	-489.650000   	4247.460000   
 312                            	-55094.300000 	-39480.580000 
 591                            	-40456.820000 	-20124.430000 
 1074                           	-14540.720000 	-2210.790000  
 1084                           	-14098.420000 	18258.680000  
 432                            	-49596.010000 	-22124.470000 
 1584                           	-72534.780000 	-663.570000   
 1447                           	-77404.480000 	-47273.530000 
 1286                           	-86340.000000 	-15400.000000 
 914                            	-21678.460000 	-40925.070000 
 1434                           	-75595.730000 	2814.780000   
 526                            	-45175.480000 	-42273.260000 
 108                            	-63697.910000 	-16569.170000 
 342                            	-52109.030000 	-39673.180000 
 1431                           	-79081.790000 	-16691.270000 
 1272                           	-87090.000000 	-15400.000000 
 2022                           	-96760.000000 	-28900.000000 
 734                            	-30634.290000 	11172.830000  
 1573                           	-71878.230000 	-16874.410000 
 1602                           	-70718.330000 	-17484.880000 
 1600                           	-71030.000000 	-19260.000000 
 455                            	-46930.000000 	-31690.000000 
 1648                           	-68947.960000 	-20293.050000 
 1282                           	-86470.000000 	-13690.000000 
 1294                           	-86220.000000 	-32000.000000 
 825                            	-26397.120000 	13195.110000  
 1767                           	-89276.670000 	-20659.330000 
 632                            	-39108.630000 	483.610000    
 1305                           	-85308.600000 	-6130.110000  
 580                            	-41034.610000 	-39865.780000 
 549                            	-44116.190000 	-13190.890000 
 726                            	-11872.280000 	15754.260000  
 358                            	-52709.420000 	-22368.650000 
 531                            	-44031.090000 	-8776.030000  
 55                             	-65995.470000 	20763.090000  
 886                            	-23989.640000 	-38517.590000 
 203                            	-59524.070000 	1639.200000   
 642                            	-38145.630000 	-30813.650000 
 661                            	-38627.130000 	-49399.410000 
 1697                           	-91996.230000 	11657.880000  
 465                            	-12358.880000 	-814.410000   
 1732                           	-90511.980000 	12372.510000  
 428                            	-11733.140000 	12136.770000  
 271                            	-10351.580000 	-2996.260000  
 74                             	-65299.800000 	-7063.750000  
 1183                           	-8431.560000  	-5090.830000  
 41                             	-67108.550000 	22989.240000  
 1081                           	-14794.090000 	14084.650000  
 1519                           	-74430.000000 	-27570.000000 
 540                            	-43923.590000 	-42369.560000 
 442                            	-47770.000000 	-39840.000000 
 228                            	-61859.230000 	19815.380000  
 761                            	-36701.140000 	-8857.420000  
 316                            	-54936.600000 	14410.040000  
 1098                           	374.070000    	-12324.190000 
 1738                           	-90930.000000 	-8980.000000  
 253                            	-56677.480000 	-19621.530000 
 1777                           	-90253.420000 	-15287.180000 
 1557                           	-72813.370000 	-57007.050000 
 384                            	-51143.380000 	8909.870000   
 1733                           	-91178.760000 	-32525.300000 
 24                             	-66590.000000 	-18160.000000 
 161                            	-60910.000000 	-8620.000000  
 307                            	-53377.530000 	20742.200000  
 314                            	-62894.540000 	-53155.080000 
 958                            	-33715.870000 	-57681.140000 
 1666                           	-68200.000000 	-18480.000000 
 313                            	-1576.350000  	-34334.050000 
 171                            	-62124.150000 	2313.300000   
 71                             	-64339.030000 	-31295.150000 
 1267                           	-86169.930000 	-29881.750000 
 985                            	-19860.000000 	6560.000000   
 1105                           	-8672.190000  	13806.380000  
 57                             	-65510.000000 	-30370.000000 
 1251                           	-87810.000000 	-16460.000000 
 126                            	-61931.550000 	-3849.860000  
 186                            	-60958.340000 	21474.910000  
 596                            	-41130.910000 	14447.000000  
 1554                           	-74564.300000 	13404.980000  
 1604                           	-69752.100000 	-6089.810000  
 601                            	-41708.710000 	-32739.640000 
 1690                           	-71143.440000 	6710.540000   
 1555                           	-70865.170000 	-55065.040000 
 1476                           	-74065.260000 	-38090.670000 
 1654                           	-68398.540000 	-17240.690000 
 1468                           	-77260.000000 	-17750.000000 
 91                             	-64430.000000 	-13420.000000 
 663                            	-39975.320000 	-28791.370000 
 739                            	-4440.890000  	-22531.910000 
 1206                           	-4853.330000  	4771.110000   
 1019                           	-20498.600000 	-56038.980000 
 1574                           	-71551.250000 	-5816.030000  
 266                            	-54113.500000 	-18339.540000 
 1730                           	-93480.480000 	17374.970000  
 2002                           	-95789.300000 	9513.970000   
 1798                           	-87283.000000 	-52282.360000 
 1444                           	-75696.510000 	-6530.730000  
 1477                           	-76790.000000 	-19390.000000 
 1896                           	-60151.840000 	-46716.990000 
 1529                           	-75039.200000 	-51586.690000 
 2027                           	-105648.720000	-18751.020000 
 362                            	-52494.220000 	-33028.530000 
 930                            	-44212.490000 	-59221.930000 
 1023                           	-10796.640000 	-42176.960000 
 94                             	-64918.850000 	-16630.220000 
 1380                           	-83665.520000 	-24038.120000 
 182                            	-60360.000000 	18480.000000  
 839                            	-31789.880000 	-54599.570000 
 1102                           	-15675.280000 	4422.010000   
 33                             	-66078.750000 	-20964.570000 
 1787                           	-89509.150000 	-31273.090000 
 2019                           	-102031.230000	-2054.920000  
 1298                           	-86120.000000 	-16500.000000 
 1285                           	-86380.000000 	-28350.000000 
 1092                           	-14237.560000 	15615.130000  
 468                            	-45542.750000 	17841.270000  
 905                            	-23604.450000 	-9820.410000  
 1966                           	-33370.000000 	-10050.000000 
 288                            	-57566.670000 	15593.050000  
 1752                           	-94239.710000 	-20003.230000 
 246                            	-13493.430000 	3898.370000   
 780                            	-32460.000000 	-9130.000000  
 1012                           	-23142.150000 	-57291.190000 
 2012                           	-99387.680000 	-29742.620000 
 1656                           	-68639.020000 	11858.500000  
 798                            	-29464.530000 	16989.430000  
 1908                           	-56955.750000 	18473.080000  
 1026                           	-18968.120000 	13249.850000  
 1325                           	-82969.850000 	-30020.890000 
 808                            	-27167.520000 	-38132.390000 
 1189                           	-1455.620000  	-53540.280000 
 1540                           	-74065.260000 	5458.330000   
 1182                           	-8966.960000  	-31391.450000 
 1761                           	-89480.000000 	-28340.000000 
 876                            	-20081.190000 	24658.850000  
 867                            	-26108.230000 	-52769.880000 
 489                            	-49508.950000 	-12998.290000 
 856                            	-26300.820000 	-8183.320000  
 569                            	-42864.300000 	-36399.010000 
 1866                           	-94100.580000 	-39760.280000 
 1943                           	-41419.810000 	-21087.420000 
 787                            	-29960.200000 	-15983.560000 
 817                            	-46716.270000 	-55947.760000 
 294                            	-56432.110000 	21091.290000  
 693                            	-37730.000000 	-15930.000000 
 46                             	-65468.280000 	-14371.480000 
 1287                           	-85195.990000 	-24455.520000 
 469                            	-49797.840000 	7513.460000   
 1946                           	-43153.190000 	-49784.600000 
 265                            	-52282.090000 	4675.240000   
 45                             	-65890.000000 	-13000.000000 
 1676                           	-70865.170000 	14641.190000  
 929                            	-15489.770000 	23406.640000  
 1678                           	-67850.000000 	-14080.000000 
 1826                           	-91039.630000 	-50612.750000 
 403                            	-56812.620000 	8658.420000   
 238                            	-57610.000000 	-45340.000000 
 1432                           	-75178.330000 	-47830.060000 
 259                            	-50759.320000 	21178.570000  
 1576                           	-72030.000000 	-23120.000000 
 479                            	-46619.970000 	-42851.060000 
 1797                           	-88396.080000 	-30160.020000 
 458                            	-48931.150000 	-10109.310000 
 981                            	-30826.890000 	-57970.040000 
 728                            	-38145.630000 	-46125.230000 
 1043                           	-10604.050000 	-38228.690000 
 223                            	-58360.000000 	-37690.000000 
 1040                           	-21485.860000 	-53347.680000 
 481                            	-45656.980000 	-41213.970000 
 583                            	-42286.500000 	-30139.560000 
 592                            	-42575.400000 	-54021.770000 
 996                            	-25819.330000 	-58066.340000 
 1253                           	-87283.000000 	-30994.830000 
 116                            	-62930.000000 	-13880.000000 
 614                            	3648.250000   	-10013.010000 
 612                            	-41901.300000 	1928.100000   
 933                            	-40745.710000 	-58933.030000 
 1858                           	-94657.120000 	-32525.300000 
 848                            	-27840.000000 	-53770.000000 
 1396                           	-79352.360000 	-37951.540000 
 400                            	-58064.830000 	-57430.320000 
 2005                           	-97548.410000 	6215.640000   
 1881                           	-97022.400000 	-31829.630000 
 361                            	-47442.920000 	21178.570000  
 394                            	-47181.090000 	22836.770000  
 1658                           	-68778.160000 	8797.550000   
 1212                           	-4633.490000  	-34954.520000 
 1816                           	-98692.010000 	-16524.870000 
 784                            	-28323.110000 	-23976.400000 
 2                              	-67440.000000 	-22160.000000 
 1075                           	-3456.950000  	-5090.830000  
 1208                           	-7384.270000  	1541.980000   
 30                             	-66330.000000 	-36480.000000 
 791                            	-31420.000000 	-49840.000000 
 1722                           	-91317.900000 	-29325.220000 
 86                             	-64620.000000 	-12170.000000 
 1693                           	-91178.760000 	-37534.130000 
 1922                           	-49299.370000 	-37395.000000 
 962                            	-21880.000000 	5250.000000   
 443                            	-50410.220000 	14022.120000  
 1725                           	-91596.160000 	-30855.690000 
 480                            	-43253.780000 	16116.690000  
 1361                           	-83943.780000 	-37951.540000 
 626                            	-41160.000000 	-30970.000000 
 1027                           	-13107.830000 	-45836.330000 
 451                            	-46908.870000 	-41213.970000 
 337                            	-6752.070000  	-33798.930000 
 488                            	-43651.770000 	14979.020000  
 1368                           	-82135.040000 	-37255.860000 
 545                            	-44501.380000 	-29658.060000 
 594                            	-41708.710000 	-28309.870000 
 922                            	-27455.310000 	-60213.000000 
 541                            	-41708.710000 	-22724.510000 
 402                            	-56812.620000 	13249.850000  
 482                            	-46042.170000 	-10013.010000 
 84                             	-63758.960000 	8582.260000   
 355                            	-48914.860000 	16685.970000  
 1037                           	-14237.560000 	-50056.210000 
 1276                           	-86910.000000 	-16460.000000 
 1484                           	-76380.000000 	-58670.000000 
 478                            	-45522.890000 	15331.230000  
 31                             	-66280.000000 	-7630.000000  
 1441                           	-79213.220000 	-55899.850000 
 1422                           	-81218.440000 	-19621.530000 
 1030                           	-24856.340000 	-55947.760000 
 1856                           	-94378.850000 	-31133.960000 
 1824                           	-92848.370000 	-31133.960000 
 1855                           	-94796.250000 	-29464.350000 
 532                            	-16741.970000 	11719.370000  
 48                             	-65773.510000 	-11685.400000 
 315                            	-54075.720000 	17513.070000  
 1377                           	-75039.200000 	310.370000    
 1991                           	-100918.150000	4345.260000   
 354                            	-5202.430000  	-5789.020000  
 1591                           	-71160.000000 	-23830.000000 
 599                            	-42190.200000 	-14346.480000 
 643                            	-40230.000000 	-46710.000000 
 544                            	-43249.490000 	-30043.260000 
 1556                           	-73020.000000 	-53290.000000 
 1246                           	-87960.000000 	-15400.000000 
 865                            	-26108.230000 	-9338.920000  
 520                            	-8100.260000  	-28406.170000 
 1522                           	-75874.000000 	-50473.610000 
 1502                           	-75860.000000 	-29610.000000 
 1229                           	-6463.180000  	-24746.800000 
 1622                           	-66830.280000 	-54091.100000 
 1999                           	-108987.940000	-19029.290000 
 115                            	-62980.000000 	-16020.000000 
 854                            	-27410.000000 	-10200.000000 
 884                            	-27360.120000 	-13864.980000 
 276                            	-54901.700000 	-32450.740000 
 875                            	-25434.130000 	-10109.310000 
 584                            	-43634.690000 	-28117.270000 
 473                            	-45403.620000 	-37116.730000 
 325                            	-4633.490000  	-54792.170000 
 2007                           	-98757.800000 	4236.650000   
 120                            	-64186.730000 	22015.300000  
 5555                           	-63044.610000 	21901.650000  
 3003                           	-98098.130000 	15890.730000  
 3004                           	-56534.350000 	22293.570000  
 3005                           	9832.660000   	1979.980000   
 3006                           	6537.220000   	-11553.800000 
 3007                           	-26011.930000 	-28502.470000 
 3001                           	-69056.430000 	24937.120000  
 3002                           	-14237.560000 	20484.820000  

[VERTICES]
;;ID                             	X-Coord       	Y-Coord       


[LABELS]
  10667.460000     3371.320000  "3005"  ""  "Arial"  10  NO  NO
   7049.970000   -11516.040000  "3006"  ""  "Arial"  10  NO  NO
 -25229.160000   -27377.340000  "3007"  ""  "Arial"  10  NO  NO
 -99944.220000    18676.080000  "3003"  ""  "Arial"  10  NO  NO
 -74204.390000    26189.320000  "3001"  ""  "Arial"  10  NO  NO
 -65021.540000    24797.980000  "PRV"  ""  "Arial"  10  NO  NO
 -72256.510000    22989.240000  "NRV1"  ""  "Arial"  10  NO  NO
 -19802.920000    17980.410000  "NRV2"  ""  "Arial"  10  NO  NO
 -10759.200000    18676.080000  "NRV3"  ""  "Arial"  10  NO  NO
 -13402.750000    24519.710000  "3002"  ""  "Arial"  10  NO  NO
 -55838.680000    24380.580000  "3004"  ""  "Arial"  10  NO  NO
 -60986.640000    12136.770000  "TCV"  ""  "Arial"  10  NO  NO

[BACKDROP]
DIMENSIONS	-115014.576000	-64547.029500	17571.416000	30801.619500
UNITS     	None	0
FILE      	""
