[TITLE]
Tutorial Example
Illustrates how to set up an extended period hydraulic analysis with pipe
leakage.

[JUNCTIONS]
;;ID                             	Elev        	Demand      	Pattern                        
 2                              	700.0000    
 3                              	710.0000    
 4                              	700.0000    
 5                              	650.0000    
 6                              	700.0000    
 7                              	700.0000    

[RESERVOIRS]
;;ID                             	Head        	Pattern                        
 1                              	700.0000    	                               

[TANKS]
;;ID                             	Elevation   	InitLevel   	MinLevel    	MaxLevel    	Diameter    	MinVol      	VolCurve                       	Overflow    
 8                              	830.0000    	4.0000      	0.0000      	20.0000     	60.0000     	0.0000      	                               

[PIPES]
;;ID                             	Node1                          	Node2                          	Length      	Diameter    	Roughness   	MinorLoss   	Status
 1                              	2                              	3                              	3000.0000   	14.0000     	100.0000    	0.0000      	      
 2                              	3                              	7                              	5000.0000   	12.0000     	100.0000    	0.0000      	      
 3                              	3                              	4                              	5000.0000   	8.0000      	100.0000    	0.0000      	      
 4                              	4                              	6                              	5000.0000   	8.0000      	100.0000    	0.0000      	      
 5                              	6                              	7                              	5000.0000   	8.0000      	100.0000    	0.0000      	      
 6                              	7                              	8                              	7000.0000   	10.0000     	100.0000    	0.0000      	      
 7                              	4                              	5                              	5000.0000   	6.0000      	100.0000    	0.0000      	      
 8                              	5                              	6                              	7000.0000   	6.0000      	100.0000    	0.0000      	      

[PUMPS]
;;ID                             	Node1                          	Node2                          	Parameters  
 9                              	1                              	2                              	HEAD 1

[VALVES]
;;ID                             	Node1                          	Node2                          	Diameter    	Type  	Setting     	MinorLoss   

[DEMANDS]
;;Junction                       	Demand        	Pattern                        	Category                       
 3                              	150.000000    	                               
 4                              	150.000000    	                               
 5                              	200.000000    	                               
 6                              	150.000000    	                               

[EMITTERS]
;;Junction                       	Coefficient   

[LEAKAGE]
;;Pipe                           	Leak Area     	Leak Expansion
 1                                     1.000000       0.000000
 2                                     1.000000       0.000000
 3                                     1.000000       0.000000
 4                                     1.000000       0.000000
 5                                     1.000000       0.000000
 6                                     1.000000       0.000000
 7                                     1.000000       0.000000
 8                                     1.000000       0.000000

[STATUS]
;;ID                             	Status/Setting

[PATTERNS]
;;ID                             	Multipliers 
;Diurnal Demand Pattern
 1                              	0.7000      	0.6000      	0.5000      	0.5000      	0.5000      	0.6000      
 1                              	0.8000      	1.0000      	1.1000      	1.2500      	1.2800      	1.2000      
 1                              	1.1800      	1.1600      	1.1000      	1.0000      	1.0800      	1.1500      
 1                              	1.3000      	1.6000      	1.4000      	1.2500      	0.9000      	0.8500      

[CURVES]
;;ID                             	X-Value     	Y-Value     
;PUMP: 
 1                              	600.0000    	150.0000    	PUMP

[CONTROLS]

[RULES]

[QUALITY]
;;ID                             	InitQual      
 1                              	28.317000     

[SOURCES]
;;ID                             	Type     	Quality       	Pattern                        

[MIXING]
;;ID                             	Model   
 8                              	MIXED   	      1.0000

[REACTIONS]
 ORDER  BULK            -1.00
 ORDER  WALL            1
 ORDER  TANK            -1.00
 GLOBAL BULK            0.000000
 GLOBAL WALL            0.000000

[REACTIONS]
;Type     	Pipe/Tank                      	Coefficient 

[ENERGY]
 GLOBAL EFFIC        75.0000
 DEMAND CHARGE       0.0000

[TIMES]
 DURATION            72:00:00
 HYDRAULIC TIMESTEP  1:00:00
 QUALITY TIMESTEP    0:05:00
 REPORT TIMESTEP     1:00:00
 REPORT START        0:00:00
 PATTERN TIMESTEP    1:00:00
 PATTERN START       0:00:00
 RULE TIMESTEP       0:06:00
 START CLOCKTIME     0:00:00
 STATISTIC           NONE

[OPTIONS]
 UNITS               GPM
 PRESSURE            PSI
 HEADLOSS            H-W
 UNBALANCED          CONTINUE 10
 QUALITY             NONE
 PATTERN             1
 DEMAND MULTIPLIER   1.0000
 EMITTER EXPONENT    0.5000
 BACKFLOW ALLOWED    YES
 VISCOSITY           1.000000
 DIFFUSIVITY         1.000000
 SPECIFIC GRAVITY    1.000000
 TRIALS              40
 ACCURACY            0.00100000
 TOLERANCE           0.01000000
 CHECKFREQ           2
 MAXCHECK            10
 DAMPLIMIT           0.00000000

[REPORT]
 PAGESIZE            0
 STATUS              YES
 SUMMARY             NO
 ENERGY              NO
 MESSAGES            YES
 NODES               NONE
 LINKS               NONE
 Elevation           NO
 Demand              PRECISION 2
 Head                PRECISION 2
 Pressure            PRECISION 2
 Quality             NO
 Length              NO
 Diameter            NO
 Flow                PRECISION 2
 Velocity            PRECISION 2
 Headloss            PRECISION 2
 Quality             NO
 State               NO
 Setting             NO
 Reaction            NO

[TAGS]
;;Object  	ID                             	Tag

[COORDINATES]
;;ID                             	X-Coord       	Y-Coord       
 2                              	1241.990000   	7500.000000   
 3                              	3261.220000   	7500.000000   
 4                              	3252.073890   	5454.726844   
 5                              	3245.190000   	3092.950000   
 6                              	5633.010000   	5464.740000   
 7                              	5657.234015   	7500.331180   
 1                              	-692.329119   	7513.937239   
 8                              	6964.453193   	7542.940202   

[VERTICES]
;;ID                             	X-Coord       	Y-Coord       
 8                              	4318.910000   	3269.230000   
 8                              	5136.220000   	3894.230000   
 8                              	5504.810000   	4775.640000   


[LABELS]
   -793.839491     8137.500950  "SOURCE"  ""  "Arial"  10  NO  NO
     90.750890     7209.406124  "PUMP"  ""  "Arial"  10  NO  NO
   6920.948748     7223.907606  "TANK"  ""  "Arial"  10  NO  NO

[BACKDROP]
DIMENSIONS	-1181.754125	2840.722453	7352.367827	8389.728498
UNITS     	None	0
FILE      	""
